#=======================================================
# FHI-aims file: ./geometry.in
# Created using the Atomic Simulation Environment (ASE)
# Mon Feb  7 19:01:10 2022
#=======================================================
lattice_vector 4.1594839400000003 0.8763122400000000 -0.7686656400000000 
lattice_vector 1.3644864999999999 4.0565780499999997 0.4142136500000000 
lattice_vector -0.5717147900000000 -0.0282113000000000 14.0361856100000004 
atom_frac 0.9995777900000000 0.0005016600000000 -0.0000464000000000 Fe
    initial_moment         4.000000
atom_frac 0.5094197900000000 0.8036237400000000 0.3410167200000000 H
atom_frac 0.4897368900000000 0.1974108100000000 0.6588714300000000 H
atom_frac 0.1644879700000000 0.1633778000000000 0.5024332200000000 H
atom_frac 0.8347158200000000 0.8376231100000000 0.4974465800000000 H
atom_frac 0.5030611000000000 0.6705233700000001 0.4103541000000000 C
atom_frac 0.4961374200000002 0.3304725400000000 0.5895346100000001 C
atom_frac 0.3044299700000000 0.4778810200000000 0.4071758800000000 C
atom_frac 0.6948023500000000 0.5231012400000001 0.5927143200000000 C
atom_frac 0.3116892400000000 0.3097294800000000 0.5005847800000000 C
atom_frac 0.6875190900000000 0.6912687700000001 0.4993013000000001 C
atom_frac 0.1081835200000000 0.4458626000000000 0.3186919000000000 C
atom_frac 0.8910402600000001 0.5551093800000000 0.6812032000000000 C
atom_frac -0.0609084000000000 0.2516894700000000 0.3317088900000000 C
atom_frac 1.0600713200000000 0.7493386900000000 0.6681879499999999 C
atom_frac 0.0666882500000000 0.5934096300000001 0.2183577700000000 C
atom_frac 0.9325221600000002 0.4075611900000000 0.7815356700000001 C
atom_frac 0.4800797400000000 0.7398509400000000 0.8903837000000001 C
atom_frac 0.5191173600000000 0.2611381900000000 0.1095008000000000 C
atom_frac 0.2413155200000000 0.5299165000000001 0.8723128699999999 S
atom_frac 0.7578771300000000 0.4710753600000001 0.1275743700000000 S
atom_frac 0.8068358899999999 0.0771613400000000 0.3549451200000000 N
atom_frac 0.1923593500000000 0.9237768300000000 0.6449035000000001 N
atom_frac 0.1361119300000000 0.7744202200000000 0.1636375100000000 N
atom_frac 0.8630891299999999 0.2265439400000001 0.8362518900000001 N
atom_frac 0.6670877499999999 0.8434668900000001 0.9353904900000000 N
atom_frac 0.3321187800000001 0.1575045000000000 0.0644972600000000 N
