#=======================================================
# FHI-aims file: geometry_Fe4H80C104S8N24.in
# Created using the Atomic Simulation Environment (ASE)
# Tue Dec 21 18:09:01 2021
#=======================================================
lattice_vector 14.4573550300000004 -0.0000024170000000 -0.0000478640000000 
lattice_vector -0.0000026100000000 15.6075856169999998 -0.0000006530000000 
lattice_vector -0.0000524870000000 -0.0000006640000000 15.8717961939999999 
atom_frac 0.2500000869527669 0.2488021656610613 0.7499996839029421 Fe
atom_frac 0.7500005191037004 0.2511978517984730 0.2499998118396363 Fe
atom_frac 0.7499999176797661 0.7511976718538307 0.2499998324088963 Fe
atom_frac 0.2500001772204570 0.7488013450024628 0.7500003345226744 Fe
atom_frac 0.4445295922204622 0.2826453563287571 0.7887356483486272 H
atom_frac 0.0554705939068469 0.2826452927829522 0.7112643522904776 H
atom_frac 0.9445304225789928 0.2173534399525394 0.2112631305210115 H
atom_frac 0.5554699117212962 0.2173533829984038 0.2887371204196825 H
atom_frac 0.5554690290236693 0.7173525590435474 0.2112613477653156 H
atom_frac 0.9445307941156785 0.7173526225900135 0.2887383142675191 H
atom_frac 0.0554709654371379 0.7826470382767001 0.7887376458918495 H
atom_frac 0.4445287095324418 0.7826470952303527 0.7112623958880135 H
atom_frac 0.5328794454408482 0.3775620405923875 0.8829899011422385 H
atom_frac 0.9671211187288834 0.3775627372377314 0.6170106027782651 H
atom_frac 0.0328792133865363 0.1224353467638224 0.1170095451693740 H
atom_frac 0.4671214345628416 0.1224360660406703 0.3829908325403650 H
atom_frac 0.4671212508757563 0.6224333119239279 0.1170083550746810 H
atom_frac 0.0328788859122184 0.6224338967068166 0.3829914337270992 H
atom_frac 0.9671214829377420 0.8775644907512046 0.8829906011929651 H
atom_frac 0.5328785700743809 0.8775644121883631 0.6170099438683252 H
atom_frac 0.2750448362454492 0.5042952500487418 0.9436728717391745 H
atom_frac 0.2249561216007266 0.5042952258129604 0.5563271471405713 H
atom_frac 0.7750432587469832 0.9957044152783538 0.0563287063378155 H
atom_frac 0.7249566648969721 0.9957044240008061 0.4436716086477261 H
atom_frac 0.7249572434642531 0.4957026653243092 0.0563291647724995 H
atom_frac 0.7750431913374385 0.4957026895594936 0.4436711090722767 H
atom_frac 0.2249560541963262 0.0042967036646075 0.9436708099719908 H
atom_frac 0.2750433397403712 0.0042966949423189 0.5563291677609924 H
atom_frac 0.1966525397250295 0.4013843776009126 0.8485290202864560 H
atom_frac 0.3033476892744674 0.4013843857402649 0.6514709901231370 H
atom_frac 0.6966522013696520 0.0986149826215623 0.1514707837456584 H
atom_frac 0.8033480900562823 0.0986143668139832 0.3485288273761569 H
atom_frac 0.8033488482841236 0.5986154599141645 0.1514698659811415 H
atom_frac 0.6966509319859072 0.5986148110604005 0.3485304163297441 H
atom_frac 0.3033478032631153 0.9013861363215055 0.8485287325662370 H
atom_frac 0.1966519145763712 0.9013861114149934 0.6514706889357100 H
atom_frac 0.4156259412549589 0.5601168062295868 0.0062967201729904 H
atom_frac 0.0843748647222284 0.5601167756677798 0.4937030635031121 H
atom_frac 0.9156242329353789 0.9398796990679446 0.9937038156489139 H
atom_frac 0.5843758425764064 0.9398796270346568 0.5062967345400082 H
atom_frac 0.5843789052027121 0.4398772648592484 0.9937027961532152 H
atom_frac 0.9156223731537382 0.4398772954199046 0.5062970828485618 H
atom_frac 0.0843750800102185 0.0601214198750455 0.0062963307093042 H
atom_frac 0.4156241620585278 0.0601208511943483 0.4937034118202703 H
atom_frac 0.1394862138937540 0.0939383513731258 0.7901170468942027 H
atom_frac 0.3605139040986103 0.0939383821881705 0.7098829382170706 H
atom_frac 0.6394857189763742 0.4060629132858935 0.2098811522518673 H
atom_frac 0.8605146834551008 0.4060623102140256 0.2901178541200126 H
atom_frac 0.8605151741135730 0.9060640489982746 0.2098812093250899 H
atom_frac 0.6394847171645142 0.9060633774688756 0.2901190982843289 H
atom_frac 0.3605142856559312 0.5939356428008155 0.7901183640599214 H
atom_frac 0.1394853211794924 0.5939362458727121 0.7098822922401880 H
atom_frac 0.0415456238307783 0.9923219998041972 0.7095795900393114 H
atom_frac 0.4584548185339656 0.9923220678062495 0.7904204689958334 H
atom_frac 0.5415462615444327 0.5076801560598555 0.2904199496858412 H
atom_frac 0.9584534858923066 0.5076795764690801 0.2095803251423973 H
atom_frac 0.9584536891131138 0.0076823227092078 0.2904199262706300 H
atom_frac 0.5415465694828611 0.0076822547075324 0.2095803074171911 H
atom_frac 0.4584537430900399 0.4923177593127904 0.7095801966743310 H
atom_frac 0.0415458270549962 0.4923183389034877 0.7904204512641044 H
atom_frac 0.1286449446236801 0.1231190190689659 0.4823270248865937 H
atom_frac 0.3713543201935182 0.1231190368871324 0.0176733528752067 H
atom_frac 0.6286473657069251 0.3768822422327602 0.5176717389294367 H
atom_frac 0.8713531982125534 0.3768816588722856 0.9823275048382456 H
atom_frac 0.8713543683152880 0.8768833813021146 0.5176712313264459 H
atom_frac 0.6286456844463402 0.8768833634841898 0.9823280535819805 H
atom_frac 0.3713547139938599 0.6231169545683602 0.4823277773886331 H
atom_frac 0.1286461147325824 0.6231168972143450 0.0176726415198658 H
atom_frac 0.2240977390283803 0.2169721188383349 0.5717274060844700 H
atom_frac 0.2759024233868246 0.2169721420294906 0.9282725891506871 H
atom_frac 0.7240980937170393 0.2830285313127589 0.4282719334323630 H
atom_frac 0.7759015726043117 0.2830285241664683 0.0717276928619341 H
atom_frac 0.7759029572917842 0.7830302815329874 0.4282714801811522 H
atom_frac 0.7240961978718446 0.7830302583415900 0.0717281872539104 H
atom_frac 0.2759039859813370 0.7169700247742413 0.5717269528372739 H
atom_frac 0.2240963569619154 0.7169700319199496 0.9282724534920064 H
atom_frac 0.9845551007536957 0.9387545979957536 0.5751527820904769 H
atom_frac 0.5154449743495775 0.9387545402262701 0.9248471379574569 H
atom_frac 0.4845570817963747 0.5612483357920514 0.4248475394287397 H
atom_frac 0.0154430328998956 0.5612482482675393 0.0751522443383763 H
atom_frac 0.0154421371242393 0.0612503652314444 0.4248473642616446 H
atom_frac 0.4845571053522448 0.0612504230016455 0.0751523783608548 H
atom_frac 0.5154429228382115 0.4387502202946863 0.5751526069314605 H
atom_frac 0.9845569717324028 0.4387503078191699 0.9248472719734123 H
atom_frac 0.4096844927443470 0.3322475150974001 0.8248656715391433 C
atom_frac 0.0903157112924262 0.3322474592696807 0.6751343331814966 C
atom_frac 0.9096843511697090 0.1677506296774282 0.1751341572621570 C
atom_frac 0.5903159652210022 0.1677512273040520 0.3248660895969735 C
atom_frac 0.5903148201914094 0.6677497595609411 0.1751319546252716 C
atom_frac 0.9096849850382469 0.6677498153890652 0.3248677033259781 C
atom_frac 0.0903163451545694 0.8322492078375918 0.8248659891001821 C
atom_frac 0.4096833477244816 0.8322492509248465 0.6751340567612233 C
atom_frac 0.4584114499057322 0.3861501604884481 0.8778031183911281 C
atom_frac 0.0415887735956559 0.3861507257787978 0.6221975208133443 C
atom_frac 0.9584109044939454 0.1138460772358414 0.1221970042971066 C
atom_frac 0.5415887007468143 0.1138473049890720 0.3778038681728191 C
atom_frac 0.5415878630364264 0.6138445513136193 0.1221963979184153 C
atom_frac 0.9584119227325020 0.6138452674517439 0.3778038856456619 C
atom_frac 0.0415884084514175 0.8861537602789654 0.8778031420610617 C
atom_frac 0.4584106122011917 0.8861544546680306 0.6221969082338390 C
atom_frac 0.4117620187019426 0.4498018964172560 0.9243862397782152 C
atom_frac 0.0882382277816802 0.4498024721923101 0.5756144046638666 C
atom_frac 0.9117618037594328 0.0501962490010257 0.0756136015531013 C
atom_frac 0.5882384701867169 0.0501962137380048 0.4243866356329988 C
atom_frac 0.5882386776215187 0.5501934560991444 0.0756139065839392 C
atom_frac 0.9117617768547391 0.5501935210380965 0.4243863717446388 C
atom_frac 0.0882388925626714 0.9498042292280574 0.9243859147608546 C
atom_frac 0.4117615344503918 0.9498036237769373 0.5756141407756700 C
atom_frac 0.3157665410607252 0.4560033526369693 0.9107120098407151 C
atom_frac 0.1842343993513468 0.4560033185933747 0.5892886351137249 C
atom_frac 0.8157650397906766 0.0439960444774812 0.0892885126034457 C
atom_frac 0.6842345402273723 0.0439960377830317 0.4107117240703814 C
atom_frac 0.6842341552633189 0.5439952034498744 0.0892881365215743 C
atom_frac 0.8157662969750988 0.5439958782075890 0.4107121412970045 C
atom_frac 0.1842342731526402 0.9560050744654732 0.9107110037063605 C
atom_frac 0.3157654644099708 0.9560050811600862 0.5892890523383371 C
atom_frac 0.2711419920026544 0.3991957101838963 0.8573555930461865 C
atom_frac 0.2288582362065910 0.3991956945012660 0.6426444171833126 C
atom_frac 0.7711395152862649 0.1008043138233674 0.1426459203466095 C
atom_frac 0.7288607769350719 0.1008055978386864 0.3573549510522582 C
atom_frac 0.7288600876982374 0.6008041273313082 0.1426439232719119 C
atom_frac 0.7711396933597573 0.6008035022992432 0.3573557291706564 C
atom_frac 0.2288604893485555 0.8991955236915461 0.8573542260136408 C
atom_frac 0.2711392277021574 0.8991948803903401 0.6426458253564320 C
atom_frac 0.4567103032923612 0.5056580787917254 0.9846397974845829 C
atom_frac 0.0432906550458654 0.5056579948045580 0.5153602215073008 C
atom_frac 0.9567091195226640 0.9943390799446022 0.0153590959869376 C
atom_frac 0.5432914953155931 0.9943396766014275 0.4846405888399588 C
atom_frac 0.5432910847161025 0.4943379144388090 0.0153590887828585 C
atom_frac 0.9567107329718639 0.4943386391401746 0.4846411849538157 C
atom_frac 0.0432908851099825 0.0056613982843743 0.9846404203249293 C
atom_frac 0.4567085093195758 0.0056620830557534 0.5153595575203768 C
atom_frac 0.1353628058099616 0.0976500045468711 0.7218279772960869 C
atom_frac 0.3646373135225431 0.0976500424495228 0.7781720081205988 C
atom_frac 0.6353621137102581 0.4023506181209839 0.2781714570765601 C
atom_frac 0.8646375956962020 0.4023512919438019 0.2218288090846485 C
atom_frac 0.8646371988228054 0.9023511143961968 0.2781715390158013 C
atom_frac 0.6353619994230615 0.9023510764934601 0.2218281382376190 C
atom_frac 0.3646365075431390 0.5976479379655119 0.7218280592310576 C
atom_frac 0.1353631006302436 0.5976479048571619 0.7781719673260811 C
atom_frac 0.0806493022835966 0.0414728235206070 0.6761253582210642 C
atom_frac 0.4193514884526196 0.0414728822579633 0.8238739925267353 C
atom_frac 0.5806496540021158 0.4585290636296620 0.3238743762081455 C
atom_frac 0.9193493839963980 0.4585291097951513 0.1761252645252043 C
atom_frac 0.9193493189707241 0.9585308582786000 0.3238741580867668 C
atom_frac 0.5806498995618058 0.9585307995416982 0.1761261538378491 C
atom_frac 0.4193496589406180 0.5414688517428489 0.6761251401015328 C
atom_frac 0.0806499289486240 0.5414688055773877 0.8238748818328787 C
atom_frac 0.0736214185924098 0.0491652320321165 0.5879185595545878 C
atom_frac 0.4263800666085303 0.0491659411655618 0.9120801617798834 C
atom_frac 0.5736224079998563 0.4508360122275050 0.4120817625374614 C
atom_frac 0.9263773189104400 0.4508360530643004 0.0879178775649478 C
atom_frac 0.9263778943513686 0.9508384497671969 0.4120809567553252 C
atom_frac 0.5736220130931713 0.9508383813482695 0.0879193545383998 C
atom_frac 0.4263775966323280 0.5491619031451123 0.5879177537743061 C
atom_frac 0.0736226857240396 0.5491618623083456 0.9120822687952241 C
atom_frac 0.1283159451451397 0.1134166884564181 0.5502115897302673 C
atom_frac 0.3716848715671688 0.1134161024299161 0.9497877669374405 C
atom_frac 0.6283178768281060 0.3865852134574511 0.4497878021484283 C
atom_frac 0.8716818268859399 0.3865852341456418 0.0502124627154927 C
atom_frac 0.8716833677963509 0.8865869933428742 0.4497872965312338 C
atom_frac 0.6283158247599659 0.8865869386555760 0.0502130094734454 C
atom_frac 0.3716835111853882 0.6134133426294995 0.5502123442159501 C
atom_frac 0.1283167943697450 0.6134133219408826 0.9497876836405367 C
atom_frac 0.1817235516764768 0.1668477688495713 0.5995470639022571 C
atom_frac 0.3182765926406007 0.1668471620837266 0.9004529272083772 C
atom_frac 0.6817244141571666 0.3331535088915275 0.4004526500919496 C
atom_frac 0.8182752702624188 0.3331535172363190 0.0995469803269060 C
atom_frac 0.8182771446480289 0.8331533500936319 0.4004530824601388 C
atom_frac 0.6817227203025951 0.8331533161451433 0.0995465891014078 C
atom_frac 0.3182762821647033 0.6668456879093797 0.5995468662219494 C
atom_frac 0.1817240426828307 0.6668456795643964 0.9004531660312338 C
atom_frac 0.0122229120540567 0.9938257440498434 0.5408040230034247 C
atom_frac 0.4877775308512328 0.9938251947802215 0.9591954061070140 C
atom_frac 0.5122247746981117 0.5061764027325778 0.4591965999673704 C
atom_frac 0.9877749721958013 0.5061764585767038 0.0408036747371625 C
atom_frac 0.9877743258239919 0.0061798598914464 0.4591961233487183 C
atom_frac 0.5122252405377524 0.0061797684477796 0.0408034801649677 C
atom_frac 0.4877759216258185 0.4938215126401744 0.5408035463948907 C
atom_frac 0.0122250324386783 0.4938214567959420 0.9591964716230095 C
atom_frac 0.0891059741022104 0.2453807329381092 0.8775972331642947 C
atom_frac 0.4108948902574384 0.2453807719136591 0.6224021343621544 C
atom_frac 0.5891047893377178 0.2546185939749678 0.1224069626040176 C
atom_frac 0.9108948667281782 0.2546186546640712 0.3775932914009700 C
atom_frac 0.9108947222499710 0.7546216674335896 0.1224104737791052 C
atom_frac 0.5891051143458271 0.7546216284572367 0.3775891913204319 C
atom_frac 0.4108903734708136 0.7453806028251080 0.8775931837416096 C
atom_frac 0.0891099797305301 0.7453811828515668 0.6224062249254699 C
atom_frac 0.0026574758162781 0.2409232743732517 0.9419961106968059 S
atom_frac 0.4973420035596235 0.2409233346440800 0.5580045165555134 S
atom_frac 0.5026572084469265 0.2590792293355122 0.0580088237720346 S
atom_frac 0.9973424492295425 0.2590793222786942 0.4419914306000051 S
atom_frac 0.9973446039169859 0.7590784852845970 0.0580122262991551 S
atom_frac 0.5026552342902876 0.7590784250123481 0.4419880692155260 S
atom_frac 0.4973386460716471 0.7409199674649120 0.9419969930113936 S
atom_frac 0.0026623972085815 0.7409205152367022 0.5580024152907229 S
atom_frac 0.3164350363143313 0.3365844939123405 0.8151626449517549 N
atom_frac 0.1835658609778221 0.3365844677916599 0.6848373601278368 N
atom_frac 0.8164349636274654 0.1634155441234384 0.1848372514802392 N
atom_frac 0.6835646595061606 0.1634155290915444 0.3151623649716555 N
atom_frac 0.6835642766241748 0.6634153436023880 0.1848356112611711 N
atom_frac 0.8164355270404827 0.6634153697235234 0.3151640463334147 N
atom_frac 0.1835650410073555 0.8365842933914749 0.8151628948800180 N
atom_frac 0.3164346534346336 0.8365843084232126 0.6848365212896822 N
atom_frac 0.1846227310274884 0.1612158960874410 0.6848991008444116 N
atom_frac 0.3153774112563711 0.1612165625895088 0.8151008898028493 N
atom_frac 0.6846229758009059 0.3387847418373511 0.3150993705369771 N
atom_frac 0.8153767106519041 0.3387847565468364 0.1849002603452519 N
atom_frac 0.8153772736055062 0.8387865042838032 0.3151004154675334 N
atom_frac 0.6846219016894609 0.8387858377816572 0.1848992565554255 N
atom_frac 0.3153770288291042 0.6612138142493292 0.6848995157264000 N
atom_frac 0.1846226022932314 0.6612137995397873 0.8150998860128665 N
atom_frac 0.1529881664676581 0.2486631191040019 0.8304723248642462 N
atom_frac 0.3470113157003994 0.2486625015893225 0.6695276729765069 N
atom_frac 0.6529880143760495 0.2513394311653058 0.1695309961049105 N
atom_frac 0.8470116405035740 0.2513394680587595 0.3304686275818369 N
atom_frac 0.8470104548046181 0.7513386405531507 0.1695322318308072 N
atom_frac 0.6529886889186403 0.7513386173535822 0.3304680630449113 N
atom_frac 0.3470133736443088 0.7486591249217228 0.8304710404046958 N
atom_frac 0.1529869807429591 0.7486590880276580 0.6695289985805388 N
