#=======================================================
# FHI-aims file: geometry_Fe2H32C48N20.in
# Created using the Atomic Simulation Environment (ASE)
# Tue Dec 21 18:09:01 2021
#=======================================================
lattice_vector 8.7881921760000008 0.0000000000000000 0.0000000000000000 
lattice_vector -2.2868919790000000 8.7340355560000003 0.0000000000000000 
lattice_vector 0.0000000000000000 0.0000000000000000 14.4117999999999995 
atom_frac 0.4999993072522884 0.0000000000000000 0.9999993061241452 Fe
atom_frac 0.0000004498005097 0.4999991094609157 0.4999999999999999 Fe
atom_frac 0.0716987624208585 0.2677662559311855 0.9826704506029811 H
atom_frac 0.4282986649750669 0.2322282737453065 0.4826732261063853 H
atom_frac 0.9282984759038299 0.7322319629906460 0.0173288555211712 H
atom_frac 0.5717037207946447 0.7677722350687475 0.5173274677694693 H
atom_frac 0.0736769664282519 0.4597931820006451 0.1097600577304689 H
atom_frac 0.4263265022375222 0.0402070724063819 0.6097642209855820 H
atom_frac 0.9263217077284978 0.5402061818672976 0.8902399422695311 H
atom_frac 0.5736761814738003 0.9597945813537762 0.3902357790144180 H
atom_frac 0.8181531864789449 0.4572307926152916 0.1894648829431417 H
atom_frac 0.6818517144795706 0.0427671718995200 0.6894683523224003 H
atom_frac 0.1818451897362010 0.5427674263065470 0.8105344231810034 H
atom_frac 0.3181509692317519 0.9572344818606310 0.3105323415534471 H
atom_frac 0.5731727402454679 0.2622739494604360 0.1418233669631803 H
atom_frac 0.9268310228225830 0.2377240150543756 0.6418247547148892 H
atom_frac 0.4268247960208242 0.7377254144075067 0.8581773269126671 H
atom_frac 0.0731716608887325 0.7622776387057826 0.3581759391609650 H
atom_frac 0.1128653210114763 0.9166598817542067 0.7500013877517020 H
atom_frac 0.3871285621755689 0.5833420264129714 0.2500041632551131 H
atom_frac 0.8871347889773277 0.0833406270598402 0.2499986122482979 H
atom_frac 0.6128689740907233 0.4166573374549714 0.7499958367448869 H
atom_frac 0.1768033829839197 0.7582439935741405 0.6243772464230728 H
atom_frac 0.3231916380935758 0.7417579145930375 0.1243800219264770 H
atom_frac 0.8231967270048840 0.2417565152399064 0.3756227535769269 H
atom_frac 0.6768058981727165 0.2582414492749052 0.8756199780735230 H
atom_frac 0.7018071649751505 0.5547206636537751 0.5771513620782969 H
atom_frac 0.7981895324607322 0.9452755197828749 0.0771513620782969 H
atom_frac 0.2981929450136533 0.4452798451602717 0.4228486379217030 H
atom_frac 0.2018080038055601 0.0547238440850677 0.9228479440458484 H
atom_frac 0.6219580755642582 0.6976923738092466 0.6999604490764495 H
atom_frac 0.8780368880979665 0.8023015197351953 0.1999604490764496 H
atom_frac 0.3780428743733992 0.3023069900586961 0.3000395509235502 H
atom_frac 0.1219617860587832 0.1976978441327546 0.8000381631718481 H
atom_frac 0.8042143215267218 0.0521362658853803 0.9254104275662980 C
atom_frac 0.6957845920379100 0.4478605536833271 0.4254125091938547 C
atom_frac 0.1957854905204784 0.9478630979825624 0.0745888785578472 C
atom_frac 0.3042166558413514 0.5521399551307269 0.5745881846819997 C
atom_frac 0.8113762457145912 0.9011664710470555 0.8158731039842377 C
atom_frac 0.6886230254438105 0.5988308573357060 0.3158737978600854 C
atom_frac 0.1886247042230664 0.0988328928208944 0.1841268960157620 C
atom_frac 0.3113782224354580 0.4011696514783480 0.6841262021399144 C
atom_frac 0.8235977168872638 0.1680643490158005 0.9962953968275980 C
atom_frac 0.6764031745166790 0.3319313256068028 0.4962967845793003 C
atom_frac 0.1763995214374248 0.8319338699060381 0.0037046031724017 C
atom_frac 0.3235980733625823 0.6680691832072512 0.5037039092965470 C
atom_frac 0.9648840014492207 0.2722498648825038 0.0195811765358940 C
atom_frac 0.5351140721665573 0.2277480996323078 0.5195853397910069 C
atom_frac 0.0351138327586753 0.7277506439315431 0.9804188234641060 C
atom_frac 0.4648883136031614 0.7722524091817462 0.4804160479607019 C
atom_frac 0.9647939112980168 0.3778596937051475 0.0898055759863468 C
atom_frac 0.5352090118211877 0.1221394157557754 0.5898097392414527 C
atom_frac 0.0352047628587258 0.6221396701628024 0.9101944240136532 C
atom_frac 0.4647945118389885 0.8778610930582786 0.4101909546343946 C
atom_frac 0.8231436861204103 0.3768498512396050 0.1339714678249777 C
atom_frac 0.6768586411155866 0.1231469683291024 0.6339742433283815 C
atom_frac 0.1768549880363395 0.6231495126283377 0.8660292260508766 C
atom_frac 0.3231437446541321 0.8768535404849445 0.3660264505474656 C
atom_frac 0.6860704797422841 0.2692821645756069 0.1080579802661674 C
atom_frac 0.8139310075448591 0.2307157999392047 0.6080614496454331 C
atom_frac 0.3139262165751546 0.7307183442384400 0.8919413258579778 C
atom_frac 0.1860716761664634 0.7692858538209535 0.3919392442304214 C
atom_frac 0.8606057335981420 0.8203573198276999 0.7389770882193787 C
atom_frac 0.6393904218304982 0.6796411535011586 0.2389777820952260 C
atom_frac 0.1393952163395227 0.1796420440402429 0.2610222179047739 C
atom_frac 0.3606088482094592 0.3203605002589924 0.7610229117806211 C
atom_frac 0.0181736327346300 0.8371376499580592 0.7132162533479516 C
atom_frac 0.4818230682405726 0.6628619683169035 0.2132183349755080 C
atom_frac 0.9818264772541739 0.1628628588559877 0.2867837466520483 C
atom_frac 0.5181770417482383 0.3371385404971434 0.7867816650244918 C
atom_frac 0.0544660361082165 0.7479268842124682 0.6421994476748194 C
atom_frac 0.4455295269765287 0.7520727340625015 0.1422015293023761 C
atom_frac 0.9455340738805873 0.2520736246015787 0.3578005523251803 C
atom_frac 0.5544677113481599 0.2479254848593371 0.8577984706976236 C
atom_frac 0.7929657358637953 0.6337620180853776 0.6159986955133971 C
atom_frac 0.7070301216232338 0.8662353102973768 0.1159980016375499 C
atom_frac 0.2070355120154659 0.3662384907286693 0.3840006106107481 C
atom_frac 0.2929671167014547 0.1337629086244618 0.8840013044866024 C
atom_frac 0.7472688330155108 0.7169171638760403 0.6863708905202657 C
atom_frac 0.7527321719165556 0.7830824543989294 0.1863688088927161 C
atom_frac 0.2527312769733001 0.2830833449380137 0.3136291094797342 C
atom_frac 0.2472676401306515 0.2169169094690133 0.8136304972314363 C
atom_frac 0.6555295842156781 0.9612303437707722 0.9150904120234811 N
atom_frac 0.8444682511106620 0.5387658396658779 0.4150917997751833 N
atom_frac 0.3444705257731258 0.0387701650432817 0.0849088941006642 N
atom_frac 0.1555315609365451 0.4612335242020649 0.5849082002248167 N
atom_frac 0.6587797651765542 0.8647514601439283 0.8447744209606041 N
atom_frac 0.8412198039234511 0.6352470131849302 0.3447758087123062 N
atom_frac 0.3412200468706530 0.1352479037240144 0.1552255790393957 N
atom_frac 0.1587791681749025 0.3647534956291167 0.6552241912876935 N
atom_frac 0.9060766960757789 0.0173493683450729 0.8648107800552296 N
atom_frac 0.5939216754816029 0.4826497411158500 0.3648114739310842 N
atom_frac 0.0939231159714282 0.9826499955228697 0.1351885260689158 N
atom_frac 0.4060784345072008 0.5173507676982041 0.6351892199447702 N
atom_frac 0.6843553381170011 0.1648115571284947 0.0408408387571271 N
atom_frac 0.8156449574037339 0.3351818276018932 0.5408422265088362 N
atom_frac 0.3156433360397486 0.8351878067394480 0.9591584673670182 N
atom_frac 0.1843571304243810 0.6648175362660496 0.4591577734911637 N
atom_frac 0.9450871096958693 0.6434528419270364 0.5936017707711727 N
atom_frac 0.5549082057839173 0.8565467763479333 0.0936024646470273 N
atom_frac 0.0549132982345384 0.3565488118331146 0.4063975353529726 N
atom_frac 0.4450904683728325 0.1434525875200166 0.9063968414771253 N
