#=======================================================
# FHI-aims file: geometry_Fe2H28C40N8O4.in
# Created using the Atomic Simulation Environment (ASE)
# Tue Dec 21 18:09:01 2021
#=======================================================
lattice_vector 7.7346363690000004 0.1668351410000000 -0.0000712560000000 
lattice_vector -1.0533930690000000 8.0337099100000007 0.0000354190000000 
lattice_vector -0.0001694750000000 0.0000928570000000 13.0565716540000007 
atom_frac 0.9999987020467457 0.9999985980291656 0.5000007666604559 Fe
atom_frac 0.4999988464971850 0.5000030882334130 0.9999997138841931 Fe
atom_frac 0.3494914455064588 0.2718337368885600 0.4217183056316642 H
atom_frac 0.1504810575609028 0.2281485021510932 0.9217276143235935 H
atom_frac 0.6505039968278298 0.7281554153646467 0.5782820147479554 H
atom_frac 0.8495219083749745 0.7718579204381727 0.0782719401523977 H
atom_frac 0.3830409657487692 0.5735416460412920 0.5180101759425851 H
atom_frac 0.1169735767566493 0.9264490632820854 0.0180495713128224 H
atom_frac 0.6169652976411584 0.4264510157570599 0.4819901444865735 H
atom_frac 0.8830279309083406 0.0735561448271511 0.9819507490563453 H
atom_frac 0.1192155808031288 0.5653714127937022 0.6540161304379879 H
atom_frac 0.3808051746553787 0.9346496318104369 0.1540598928725672 H
atom_frac 0.8807924790296368 0.4346249459274958 0.3459872535822939 H
atom_frac 0.6191974531706849 0.0653543082993124 0.8459388957104749 H
atom_frac 0.5394168966089339 0.2507267781539467 0.6472709513763916 H
atom_frac 0.9606139224128611 0.2493508218563605 0.1472392346699962 H
atom_frac 0.4605811873573131 0.7492722772713593 0.3527301348886169 H
atom_frac 0.0393924041304814 0.7506517966610673 0.8527618516303334 H
atom_frac 0.3916454106034664 0.3617165381140667 0.7974179877653924 H
atom_frac 0.1083675725201658 0.1383561118674378 0.2973791990958929 H
atom_frac 0.6083555899045620 0.6382849462713054 0.2025815667132704 H
atom_frac 0.8916325827676700 0.8616391662870342 0.7026211212928288 H
atom_frac 0.8583513157671233 0.4784674398445716 0.9501073133576127 H
atom_frac 0.6416820225426322 0.0215881699112757 0.4500978598974257 H
atom_frac 0.1416458170230754 0.5215341248612547 0.0498922410997196 H
atom_frac 0.3583092770863486 0.9784085369202913 0.5499009286434173 H
atom_frac 0.0279403059996923 0.3815402813545248 0.8037706034358648 H
atom_frac 0.4721111058021492 0.1185276889052105 0.3037803144443033 H
atom_frac 0.9720582851079910 0.6184624978038116 0.1962304828218109 H
atom_frac 0.5278887744360787 0.8814750635438671 0.6962154105356148 H
atom_frac 0.2678245659485157 0.3141789691048588 0.4819579077080718 C
atom_frac 0.2321617719870020 0.1858190165015614 0.9819798260340065 C
atom_frac 0.7321725037503980 0.6858126388451993 0.5180439444694399 C
atom_frac 0.7678386155013894 0.8141874596163274 0.0180212602234420 C
atom_frac 0.2850938060054702 0.4704099177680234 0.5332558835276160 C
atom_frac 0.2149093117293717 0.0295993365077933 0.0332946715814089 C
atom_frac 0.7149027565830721 0.5295779664306437 0.4667475004529108 C
atom_frac 0.7850936542065056 0.9704070860814723 0.9667048828945896 C
atom_frac 0.1502831397846407 0.4662866167004154 0.6039145958161284 C
atom_frac 0.3497223363038700 0.0337172211421120 0.1039349196363375 C
atom_frac 0.8497181356953265 0.5337073934362238 0.3960857245821501 C
atom_frac 0.6502819188402212 0.9662891746920154 0.8960631030510909 C
atom_frac 0.0539726305339556 0.3077370718674359 0.5934354860880119 C
atom_frac 0.4460378520580477 0.1922594359390643 0.0934368535298091 C
atom_frac 0.9460289830713647 0.6922594207395463 0.4065663661010531 C
atom_frac 0.5539646066121405 0.8077432629905700 0.9065565737708140 C
atom_frac 0.8945030970670372 0.2314418726564823 0.6309026411806470 C
atom_frac 0.6055165349444703 0.2685778342494131 0.1308991118969800 C
atom_frac 0.1054933596122467 0.7685547270260927 0.3691007427756574 C
atom_frac 0.3944888403917516 0.7314272935668811 0.8690989107999982 C
atom_frac 0.7977665866825560 0.3038120974494377 0.7133653712291094 C
atom_frac 0.7022709932215392 0.1962464073526178 0.2133632904558809 C
atom_frac 0.2022327865229698 0.6961869312023765 0.2866357150430048 C
atom_frac 0.2977316346200567 0.8037575327479587 0.7866362640249988 C
atom_frac 0.6159149781591678 0.2996769345348652 0.7126980588759365 C
atom_frac 0.8841269696030311 0.2004138587867317 0.2126810907549483 C
atom_frac 0.3840847330474518 0.7003245766606979 0.2872984320042632 C
atom_frac 0.1158766093990806 0.7995875720424906 0.7873192296357630 C
atom_frac 0.5321424606577096 0.3609796762278917 0.7962277853864561 C
atom_frac 0.9678836218061876 0.1390721730670705 0.2962028734804392 C
atom_frac 0.4678551792428535 0.6390256122293180 0.2037702372678680 C
atom_frac 0.0321165334816484 0.8609231050874014 0.7037974469082826 C
atom_frac 0.7939717415974029 0.4288934819910181 0.8808806545130566 C
atom_frac 0.7060740702526188 0.0711335949863354 0.3808647418566197 C
atom_frac 0.2060252221767128 0.5711068414521134 0.1191204317423953 C
atom_frac 0.2939256410161307 0.9288679161725283 0.6191348126149380 C
atom_frac 0.8867544092868442 0.3738750844829396 0.7994204160854819 C
atom_frac 0.6132945654379681 0.1261824391162278 0.2994185101005513 C
atom_frac 0.1132435056011971 0.6261227297163714 0.2005791383862956 C
atom_frac 0.3867048077209602 0.8738165895631127 0.7005802784780569 C
atom_frac 0.1292386809765773 0.2173703519920238 0.5179523146812527 N
atom_frac 0.3707647032930338 0.2826268034084266 0.0179531361725509 N
atom_frac 0.8707561483846716 0.7826237919661664 0.4820518351706652 N
atom_frac 0.6292393828039095 0.7173783511813597 0.9820448865173146 N
atom_frac 0.6183501068932531 0.4222962648440712 0.8807617656906714 N
atom_frac 0.8816854287038751 0.0777123571276306 0.3807316502843250 N
atom_frac 0.3816471949285543 0.5777065411152760 0.1192370228663790 N
atom_frac 0.1183108588661312 0.9222830013472958 0.6192686700830734 N
atom_frac 0.8326651251439403 0.0901199157159454 0.5916243823517320 O
atom_frac 0.6673714071506039 0.4098941244216974 0.0916222931929056 O
atom_frac 0.1673340790610354 0.9098778716640012 0.4083790016163462 O
atom_frac 0.3326318968950941 0.5901147806470843 0.9083780271760346 O
