#=======================================================
# FHI-aims file: geometry_Fe2H6C8N16.in
# Created using the Atomic Simulation Environment (ASE)
# Tue Dec 21 18:09:01 2021
#=======================================================
lattice_vector -5.5364945670000001 -0.0005467500000000 -0.3533094710000000 
lattice_vector -2.7676466039999998 6.9111527669999999 -0.1754598860000000 
lattice_vector 0.3078100160000000 -0.0015200670000000 -8.8668880360000006 
atom_frac 0.1924226703922257 0.6152439940538342 0.0000163086593474 Fe
atom_frac 0.8075901830732803 0.3847551459914981 0.9999834902144473 Fe
atom_frac 0.9378971178343748 0.6887436719111973 0.3354711559694650 H
atom_frac 0.3738644105135973 0.6885037592572443 0.6646092008673108 H
atom_frac 0.0620957247680066 0.3112554659822777 0.6645260569243447 H
atom_frac 0.6261356406537147 0.3114953791433379 0.3353877247844324 H
atom_frac 0.7164891354185913 0.0001748694677914 0.4715641951307817 H
atom_frac 0.2834839270443009 0.9998271596546006 0.5284281097520208 H
atom_frac 0.9002387857769916 0.8256271164113897 0.2782275654190300 C
atom_frac 0.2744327830370137 0.8254263008799826 0.7218215757276666 C
atom_frac 0.0997566256529510 0.1743734673528650 0.7217638775492787 C
atom_frac 0.7255586510657891 0.1745699460303669 0.2781892839932283 C
atom_frac 0.7759282995093103 0.0001334051593957 0.3537637740520552 C
atom_frac 0.2240505319175481 0.9998758605087164 0.6462349245109991 C
atom_frac 0.9405207962318085 0.0000278541696588 0.0712301999489711 C
atom_frac 0.0594918074875891 0.9999712848659070 0.9287650977306041 C
atom_frac 0.9815970163504841 0.8237161402241427 0.1324899257313632 N
atom_frac 0.1948859638580413 0.8236361532662572 0.8675444875828832 N
atom_frac 0.0184037216186255 0.1762830009532976 0.8675193782044845 N
atom_frac 0.8051213896458689 0.1763731131680472 0.1324474355191327 N
atom_frac 0.0995684553991722 0.4143272067400474 0.1145885358096450 N
atom_frac 0.4860943996777179 0.4142639784531568 0.8854010000448939 N
atom_frac 0.9004442922157593 0.5856690404294013 0.8854158356922781 N
atom_frac 0.5139216279581402 0.5857395023583720 0.1145974586636953 N
atom_frac 0.1288483692263327 0.3625551025279917 0.2455498214290445 N
atom_frac 0.5085316958578900 0.3624727886389962 0.7544249430259740 N
atom_frac 0.8711533661527325 0.6374483777742199 0.7544514623607839 N
atom_frac 0.4914741987888079 0.6375263519090026 0.2455796442840992 N
atom_frac 0.1539981683663710 0.3081824415877250 0.3695464879253763 N
atom_frac 0.5376689830289650 0.3080994277171384 0.6303944904767960 N
atom_frac 0.8459969203765209 0.6918210404793683 0.6304652107935170 N
atom_frac 0.4623325891983110 0.6918895825262581 0.3696037027764305 N
