#=======================================================
# FHI-aims file: geometry_Fe2H20C28S4N8.in
# Created using the Atomic Simulation Environment (ASE)
# Tue Dec 21 18:09:01 2021
#=======================================================
lattice_vector 8.6162608449999993 0.0411756280000000 -2.9283271439999998 
lattice_vector -1.9522299830000001 8.3830430020000009 -3.8635945880000002 
lattice_vector -0.1281169950000000 -0.2014097000000000 10.1036200990000005 
atom_frac 0.9906488350517079 0.4921316866405760 0.0032355922551943 Fe
atom_frac 0.4920006899972051 0.9923744901693826 0.5021429581834127 Fe
atom_frac 0.3419703966580342 0.5117171264770235 0.1545979262993384 H
atom_frac 0.6463724988840980 0.4867380461772726 0.8459412102645841 H
atom_frac 0.5227324583482229 0.3269276678113897 0.1451893084340838 H
atom_frac 0.4753282802644279 0.6794259031660631 0.8509942835914399 H
atom_frac 0.1102387619891019 0.9359328801919204 0.7856857534142703 H
atom_frac 0.8959342449683447 0.0604102373793864 0.2111232621652021 H
atom_frac 0.9452960672834010 0.1378487455791912 0.8097679564510255 H
atom_frac 0.0511114574163187 0.8509855641475996 0.1903737738930574 H
atom_frac 0.3576890143518553 0.8679335308747440 0.8596516552842458 H
atom_frac 0.6496811037614661 0.1368770374006089 0.1367219054631476 H
atom_frac 0.6484622591356412 0.8726628713723273 0.7292658581846680 H
atom_frac 0.3503435458486094 0.1208439351308499 0.2757340895144722 H
atom_frac 0.8373346492564478 0.6979954589736862 0.7558410930874684 H
atom_frac 0.1684360256053949 0.3015711019948242 0.2485430210920826 H
atom_frac 0.8581164512860440 0.6389228897744348 0.3140938282516998 H
atom_frac 0.1404911801873325 0.3658810798506452 0.6892500141693744 H
atom_frac 0.6724464877114399 0.8178369194383350 0.3078325954643971 H
atom_frac 0.3190256868407885 0.1813374706913321 0.6959739162668723 H
atom_frac 0.9974433989442771 0.5335155178774473 0.6619536544015004 H
atom_frac 0.0044822330720677 0.4674680018779825 0.3391044252771067 H
atom_frac 0.2950594201889415 0.3830297364649269 0.0745942660844605 C
atom_frac 0.6971182426006236 0.6150787270414783 0.9253064764679380 C
atom_frac 0.3954670991854172 0.2778466504187165 0.0685866896384866 C
atom_frac 0.6024735102988926 0.7249246405277461 0.9283647207329578 C
atom_frac 0.3323215491603264 0.1112374015687720 0.9648069048628821 C
atom_frac 0.6704661635830502 0.8909719304051295 0.0318399337242284 C
atom_frac 0.1666769236129894 0.0626575037907102 0.8694396331377446 C
atom_frac 0.8356520483383604 0.9344132581212961 0.1278241432740685 C
atom_frac 0.0734282476174073 0.1745913505306689 0.8824314493513795 C
atom_frac 0.9232770801887893 0.8178963364225853 0.1175051301082418 C
atom_frac 0.4250855862695885 0.9899905108602099 0.9516234326426128 C
atom_frac 0.5814081982299014 0.0152185839854084 0.0439794690407850 C
atom_frac 0.6979370293512800 0.8186439806482469 0.6401662312722535 C
atom_frac 0.3005999346710979 0.1771941178673302 0.3641497945240245 C
atom_frac 0.8030170802406502 0.7207165969923041 0.6538560824787395 C
atom_frac 0.1995372047981903 0.2787227262550331 0.3503340184089366 C
atom_frac 0.8641237457590519 0.6491838050910204 0.5363028304067397 C
atom_frac 0.1374388149779122 0.3525542984417739 0.4666953671824529 C
atom_frac 0.8153918150682384 0.6867445782534602 0.4094321223882530 C
atom_frac 0.1830779598699550 0.3157068976957050 0.5940272458661368 C
atom_frac 0.7108631822163288 0.7868686679537759 0.4042710869079045 C
atom_frac 0.2835379109339584 0.2120052477707048 0.5992460157379326 C
atom_frac 0.9703666114691171 0.5441373783816132 0.5535607102639941 C
atom_frac 0.0326611354171717 0.4586516256193817 0.4484448527874532 C
atom_frac 0.1960538239255810 0.7032870470680875 0.3550881493954918 C
atom_frac 0.8086826330769127 0.3014157820145656 0.6419724441234392 C
atom_frac 0.6827972284396180 0.2121934671536110 0.8548325357211505 C
atom_frac 0.3225241950470162 0.7912496054803668 0.1410538039316265 C
atom_frac 0.3159959667093943 0.8358521442292358 0.5369940015914594 S
atom_frac 0.7058835267303536 0.1846115140255194 0.4529645704663209 S
atom_frac 0.8126841313255114 0.3371215073078062 0.0359807503478252 S
atom_frac 0.2072981278160526 0.6798390868752692 0.9537570946773853 S
atom_frac 0.1346126067295330 0.3340622036252015 0.9848114413146971 N
atom_frac 0.8565939800386673 0.6585871940054416 0.0179016352403919 N
atom_frac 0.6498893651083790 0.8522540588471728 0.5167180462697232 N
atom_frac 0.3432066086978621 0.1419917262826829 0.4866423762254611 N
atom_frac 0.1113745744795978 0.6108248509727900 0.2213741961909079 N
atom_frac 0.8832534591689979 0.3851967791940041 0.7802984666560987 N
atom_frac 0.5956319064586849 0.1248444253576224 0.7206291660144402 N
atom_frac 0.4009496216487846 0.8703426536433981 0.2791784329907685 N
