#=======================================================
# FHI-aims file: geometry_FeH8C10S2N12.in
# Created using the Atomic Simulation Environment (ASE)
# Tue Dec 21 18:09:01 2021
#=======================================================
lattice_vector 6.3476106280000000 0.0022172010000000 2.1010526070000002 
lattice_vector 3.3925875660000000 -6.3847525190000001 0.3870859940000000 
lattice_vector 6.4535574440000003 -0.0666624860000000 -8.7988047789999992 
atom_frac 0.4999991488667064 0.4999984201112825 0.9999991046137707 Fe
atom_frac 0.6401719737653979 0.5401878026384708 0.6809520471733992 H
atom_frac 0.3598274812792042 0.4598078056642764 0.3190514734247217 H
atom_frac 0.2964182916231338 0.1919239942031936 0.7153950647330163 H
atom_frac 0.7035974471086135 0.8080716740589368 0.2846032547146749 H
atom_frac 0.6597599867566613 0.8268530027722463 0.9824270311429475 H
atom_frac 0.9685098398173791 0.1732946822491286 0.0174569242124109 H
atom_frac 0.3402347853523794 0.1731504787191084 0.0175723080357741 H
atom_frac 0.0314823546979425 0.8267150549594863 0.9825432111927058 H
atom_frac 0.5456807813393352 0.6858987916883025 0.7240330935619285 C
atom_frac 0.4543228700960212 0.3140999623598476 0.2759692944405074 C
atom_frac 0.3670769098759267 0.0241688158285172 0.7421261719714211 C
atom_frac 0.6329282481316910 0.9758299705705941 0.2578731676522353 C
atom_frac 0.8116344902947221 0.6803688837525282 0.9898012566666666 C
atom_frac 0.9814968049168514 0.3197466103788075 0.0100986278785769 C
atom_frac 0.1883562833153221 0.3196377373399314 0.0101972658373768 C
atom_frac 0.0184979671921821 0.6802568711125547 0.9899007113001518 C
atom_frac 0.2427215191404172 0.8099011548786311 0.2043086668354590 C
atom_frac 0.7572788182325070 0.1900960051831291 0.7956962692370058 C
atom_frac 0.1142418971413692 0.9424565884354833 0.3280888772579403 S
atom_frac 0.8857667636218028 0.0575359521227838 0.6719087509737492 S
atom_frac 0.4702229618128017 0.7120774755905614 0.8483650432894837 N
atom_frac 0.5297712288857994 0.2879259834262555 0.1516364291024459 N
atom_frac 0.3573887261076011 0.9258711060837116 0.8597718033442805 N
atom_frac 0.6426103913180300 0.0741339315996612 0.1402286419072781 N
atom_frac 0.4839536353770770 0.8793887125978442 0.6536468583700172 N
atom_frac 0.5160575203790287 0.1206053643996015 0.3463537062656600 N
atom_frac 0.5377013195185045 0.9038617495817360 0.5214118392405710 N
atom_frac 0.4622992555134715 0.0961354455526973 0.4785897455710710 N
atom_frac 0.3377779782261995 0.7084267985948433 0.1156442742857778 N
atom_frac 0.6622180597298455 0.2915719717835544 0.8843562964244568 N
atom_frac 0.7907590829452290 0.5000750768404461 0.9999276847149617 N
atom_frac 0.2092380352309037 0.4999315306434796 0.0000723521992470 N
