#=======================================================
# FHI-aims file: geometry_Fe2H28Pt2C40N20O4.in
# Created using the Atomic Simulation Environment (ASE)
# Tue Dec 21 18:09:01 2021
#=======================================================
lattice_vector 6.9609956009999996 0.0000201230000000 0.0000583220000000 
lattice_vector 0.0000104050000000 7.1533134690000004 -1.1804693639999999 
lattice_vector 0.0001894830000000 -0.0755430340000000 21.7062880219999990 
atom_frac 0.9999733449896695 0.5000272196150346 0.5000006672018814 Fe
atom_frac 0.5000154452216065 0.4999952762555749 0.9999996278434937 Fe
atom_frac 0.0195201828308385 0.2867815999520644 0.6180460583978801 H
atom_frac 0.5195098045763374 0.7132309710656843 0.8819498291253326 H
atom_frac 0.9804531704351406 0.7132434038071765 0.3819462266821887 H
atom_frac 0.4804980263150399 0.2867689620675691 0.1180512277393433 H
atom_frac 0.0354634362001249 0.7357482269207196 0.7996556645524252 H
atom_frac 0.5354642871536583 0.2642293477699909 0.7003442230821052 H
atom_frac 0.9645544508280821 0.2642167372615845 0.2003434905425152 H
atom_frac 0.4645306145317605 0.7357691963791383 0.2996576796711424 H
atom_frac 0.9027938561498559 0.1736031428710162 0.7078861444820320 H
atom_frac 0.4027715962828111 0.8263751358098331 0.7921113468651770 H
atom_frac 0.0971967360454826 0.8263785431875446 0.2921079310366395 H
atom_frac 0.5972592198390672 0.1736331751954124 0.2078887834698619 H
atom_frac 0.9134605237545942 0.8257990015486244 0.7215423996692253 H
atom_frac 0.4135041661594485 0.1741765356102007 0.7784659417906569 H
atom_frac 0.0865286313416291 0.1741898730187330 0.2784704946312573 H
atom_frac 0.5865122842052486 0.8258178024709650 0.2215348107709403 H
atom_frac 0.9578320632192144 0.2969862839428287 0.9084260435066441 H
atom_frac 0.4578196532867408 0.7029805111675672 0.5915723703173016 H
atom_frac 0.0421657118311529 0.7029702634152598 0.0915703504238721 H
atom_frac 0.5421953606230973 0.2970067941891655 0.4084243142142513 H
atom_frac 0.0250686078747648 0.6282908134475774 0.9024212972320670 H
atom_frac 0.5250704224480032 0.3716924494512809 0.5975821804770761 H
atom_frac 0.9749492791074559 0.3716769628525327 0.0975793928843771 H
atom_frac 0.4749359717793097 0.6283033263594150 0.4024223358686427 H
atom_frac 0.8785335209602892 0.0166830807810214 0.8541751868921710 H
atom_frac 0.3785043902984810 0.9832995613476641 0.6458254363189300 H
atom_frac 0.1214642541072237 0.9832972113682246 0.1458192734971817 H
atom_frac 0.6215149332938451 0.0166989389199728 0.3541723177182875 H
atom_frac 0.4999723396416087 0.0000338258371073 0.5000067611734168 Pt
atom_frac 0.0000129453776907 0.9999943106669349 0.9999965275113709 Pt
atom_frac 0.6948686588519382 0.8000336045829001 0.4960767416030337 C
atom_frac 0.1948970023057583 0.1999943728039070 0.0039230965330503 C
atom_frac 0.3050845818595249 0.2000335031125218 0.5039311934849664 C
atom_frac 0.8051137018547933 0.7999915435441948 0.9960744338625747 C
atom_frac 0.9936432061753919 0.4354255087755874 0.6305697458857155 C
atom_frac 0.4936419415593392 0.5645927977341499 0.8694275912835749 C
atom_frac 0.0063330201298868 0.5646037301902143 0.3694264550810331 C
atom_frac 0.5063644527894978 0.4354127109587366 0.1305719260208278 C
atom_frac 0.9692253659881872 0.4624772868148099 0.7477130002614560 C
atom_frac 0.4692334327613069 0.5374964761810687 0.7522894167905181 C
atom_frac 0.0307695358516256 0.5374946517452912 0.2522846914040784 C
atom_frac 0.5307988198820865 0.4625006788409819 0.2477133317084181 C
atom_frac 0.2967071162540691 0.8096034260715965 0.4994909643659824 C
atom_frac 0.7967377426257087 0.1904268086907521 0.0005121348428574 C
atom_frac 0.7032288853895778 0.1904860958591925 0.5005214146105176 C
atom_frac 0.2032873273376553 0.8095493114502402 0.9994844020636862 C
atom_frac 0.0031636055659732 0.5906777455173752 0.8022332874429240 C
atom_frac 0.5031555436462513 0.4093000323346203 0.6977686276191833 C
atom_frac 0.9968456619554756 0.4092956209668088 0.1977672460158573 C
atom_frac 0.4968508506688778 0.5906915179973635 0.3022328947531747 C
atom_frac 0.9324621668610575 0.2741549001563754 0.7499659573791392 C
atom_frac 0.4324410618970873 0.7258176245290995 0.7500319830032467 C
atom_frac 0.0675284253466941 0.7258183982288242 0.2500281226823873 C
atom_frac 0.5675825714277423 0.2741794769693868 0.2499656949520741 C
atom_frac 0.9282514905395305 0.2171187535672487 0.8085084783573040 C
atom_frac 0.4282276558895290 0.7828426196176819 0.6914902602870685 C
atom_frac 0.0717491576842235 0.7828517570115849 0.1914863714578346 C
atom_frac 0.5717931042493589 0.2171405235280731 0.3085094227443790 C
atom_frac 0.9424116262363356 0.7142178011067417 0.6828264351360717 C
atom_frac 0.4424355883763624 0.2857771443462270 0.8171818849047697 C
atom_frac 0.0575789654991965 0.2857961975325622 0.3171827578458561 C
atom_frac 0.5575765522223365 0.7142172083512153 0.1828202505512948 C
atom_frac 0.9615280947171174 0.3437398648756799 0.8633271742472248 C
atom_frac 0.4615219887358109 0.6562380992555036 0.6366718271115063 C
atom_frac 0.0384711169053489 0.6562264640405714 0.1366688302452630 C
atom_frac 0.5385073909686541 0.3437505902132613 0.3633235505666619 C
atom_frac 0.9985729029313646 0.5299034578535424 0.8597170801470568 C
atom_frac 0.4985614106101934 0.4700715176062857 0.6402834024057144 C
atom_frac 0.0014406744229518 0.4700642795147729 0.1402799222957327 C
atom_frac 0.5014435471581608 0.5299228156395513 0.3597168892278050 C
atom_frac 0.1840581636688796 0.6899449628398809 0.5000633063486931 N
atom_frac 0.6840583696585867 0.3100849294084398 0.9999395493948031 N
atom_frac 0.8158878942037761 0.3101165401123752 0.4999434025596586 N
atom_frac 0.3159523344267683 0.6899093989530557 0.0000602812616464 N
atom_frac 0.9687728797285472 0.5306418818536612 0.6899010078938376 N
atom_frac 0.4687823127300135 0.4693458226001538 0.8100975628148248 N
atom_frac 0.0312234586375766 0.4693552245904370 0.3100971310997808 N
atom_frac 0.5312312645202013 0.5306526922878447 0.1899015741209312 N
atom_frac 0.8067163742451766 0.6790462635238087 0.4950425540573847 N
atom_frac 0.3067601019749517 0.3209922873557927 0.0049591008067367 N
atom_frac 0.1932253739911829 0.3210138066077661 0.5049608520684004 N
atom_frac 0.6932606581474303 0.6790048336228905 0.9950404209997005 N
atom_frac 0.9838409093606515 0.5557106727839097 0.5909537380089490 N
atom_frac 0.4838637058076927 0.4443077478114930 0.9090491863270743 N
atom_frac 0.0161281338257311 0.4443312329024565 0.4090505229768270 N
atom_frac 0.5161498713714182 0.5556935889303176 0.0909524075516615 N
atom_frac 0.9519348338600295 0.7325541602983421 0.6237331878779743 N
atom_frac 0.4519771823275107 0.2674589001869093 0.8762746840136162 N
atom_frac 0.0480313359521602 0.2674780514580560 0.3762797598431789 N
atom_frac 0.5480392680331648 0.7325452194565043 0.1237256791140382 N
atom_frac 0.8877330861630314 0.0325877958457141 0.8103802502960777 O
atom_frac 0.3877073652158741 0.9673723943802059 0.6896172596670882 O
atom_frac 0.1122589426751475 0.9673798929038072 0.1896121426005664 O
atom_frac 0.6123177047644078 0.0326148963439152 0.3103780419536761 O
