#=======================================================
# FHI-aims file: geometry_Ni4H24C24N16.in
# Created using the Atomic Simulation Environment (ASE)
# Tue Dec 21 18:44:11 2021
#=======================================================
lattice_vector 7.4570507590000004 0.0000008850000000 -0.0000546740000000 
lattice_vector 0.0000010360000000 8.7209766159999997 -0.0000130070000000 
lattice_vector 0.0000143790000000 0.0000023740000000 10.3895169070000009 
atom_frac 0.0000007802727708 0.5663309998376175 0.2499998209310378 Ni
atom_frac 0.5000001283393088 0.0663307550829586 0.2499999011523927 Ni
atom_frac 0.9999997327968586 0.4336678678347424 0.7500012160770738 Ni
atom_frac 0.5000003847320115 0.9336692592502229 0.7500001733484893 Ni
atom_frac 0.1605591058258469 0.2499123168971877 0.1626766715090753 H
atom_frac 0.6605593192190612 0.7499124126311186 0.3373213500590921 H
atom_frac 0.1605620952605022 0.7500843738892796 0.6626735965250462 H
atom_frac 0.3394407475214364 0.7499124927589164 0.1626782388271053 H
atom_frac 0.8394387252112168 0.7500842574532527 0.8373282155166919 H
atom_frac 0.3394411938504048 0.2500876017018072 0.6626796869504618 H
atom_frac 0.8394410998486989 0.2499064671606560 0.3373207029265117 H
atom_frac 0.6605584245371572 0.2500875215744003 0.8373218356667209 H
atom_frac 0.2517338894683547 0.5242289725122616 0.4913674646898514 H
atom_frac 0.7517341683660915 0.0242288591664632 0.0086319139052833 H
atom_frac 0.2517342730935681 0.4757732541213924 0.9913665903717616 H
atom_frac 0.2482674410238133 0.0242287788489790 0.4913677829888528 H
atom_frac 0.7482679646221725 0.4757779217852443 0.5086287597920673 H
atom_frac 0.2482650037007232 0.9757654218650625 0.9913643105467287 H
atom_frac 0.7482662399792943 0.5242290535331902 0.0086325216233405 H
atom_frac 0.7517344130605608 0.9757689421629295 0.5086322915162214 H
atom_frac 0.4966739291116794 0.2841021726004981 0.4872113781399108 H
atom_frac 0.9966740530500501 0.7841024450215811 0.0127893040809397 H
atom_frac 0.4966675409481596 0.7159068865467757 0.9872120675496989 H
atom_frac 0.0033260041921892 0.7841024166806888 0.4872094079038122 H
atom_frac 0.5033346300366119 0.7159070150166753 0.5127877339061442 H
atom_frac 0.0033278010361855 0.2158952759905901 0.9872098079154771 H
atom_frac 0.5033249260455079 0.2841023010717690 0.0127880069203314 H
atom_frac 0.9966718268556888 0.2158964509924672 0.5127897040728655 H
atom_frac 0.2163155544168021 0.2910946011160007 0.2523943737304394 C
atom_frac 0.7163161138015824 0.7910958923554146 0.2476053002924772 C
atom_frac 0.2163158732687052 0.7089043228302286 0.7523911956200635 C
atom_frac 0.2836839414955675 0.7910959349550238 0.2523943917116966 C
atom_frac 0.7836836176329952 0.7089019732343045 0.7476105133023836 C
atom_frac 0.2836857402806174 0.2089041219773691 0.7523957367241323 C
atom_frac 0.7836846398103674 0.2910933981828662 0.2476050288433101 C
atom_frac 0.7163152305630262 0.2089040793782928 0.7476056827821369 C
atom_frac 0.2673635376218327 0.4315696423690765 0.4229600154266749 C
atom_frac 0.7673647547887865 0.9315698798094227 0.0770405476014702 C
atom_frac 0.2673638954989315 0.5684303250143116 0.9229603356211983 C
atom_frac 0.2326366024886326 0.9315698399082565 0.4229594961380556 C
atom_frac 0.7326383164614327 0.5684361052668122 0.5770400590884535 C
atom_frac 0.2326344172723011 0.0684255478818869 0.9229585643779573 C
atom_frac 0.7326352765579641 0.4315685426581766 0.0770407013798575 C
atom_frac 0.7673639105831710 0.0684267344432214 0.5770405783585276 C
atom_frac 0.3881445499978469 0.3118330405830249 0.4218497661305634 C
atom_frac 0.8881430808573538 0.8118355707403209 0.0781508057735607 C
atom_frac 0.3881435335914175 0.6881703428730005 0.9218503861270265 C
atom_frac 0.1118556276644611 0.8118344092964376 0.4218489381514773 C
atom_frac 0.6118613271220638 0.6881704137310578 0.5781512709115191 C
atom_frac 0.1118560911997051 0.1881621502716015 0.9218502312260600 C
atom_frac 0.6118542974536464 0.3118354047632934 0.0781496883669277 C
atom_frac 0.8881448854070227 0.1881644583761783 0.5781511363479767 C
atom_frac 0.1596133744263355 0.4181893004775715 0.3151709743004218 N
atom_frac 0.6596128348977572 0.9181906258951780 0.1848274586553487 N
atom_frac 0.1596150696019691 0.5818107474591230 0.8151694029874008 N
atom_frac 0.3403871850863779 0.9181906228081118 0.3151715890686120 N
atom_frac 0.8403857976305673 0.5818095671949235 0.6848300627006338 N
atom_frac 0.3403876781757376 0.0818070951171350 0.8151716533340051 N
atom_frac 0.8403867844859575 0.4181881202138840 0.1848287465017863 N
atom_frac 0.6596119869723793 0.0818082448646464 0.6848284854237862 N
atom_frac 0.3539046917743108 0.2242236193355751 0.3141591947997712 N
atom_frac 0.8539054893537068 0.7242237975412065 0.1858407973817151 N
atom_frac 0.3539036510303647 0.7757775363797846 0.8141571466299383 N
atom_frac 0.1460945845247110 0.7242238344391294 0.3141587271835179 N
atom_frac 0.6460971623040164 0.7757775416572554 0.6858437672355890 N
atom_frac 0.1460963647269580 0.2757739234701830 0.8141612021406814 N
atom_frac 0.6460941800209099 0.2242236246150283 0.1858400403322875 N
atom_frac 0.8539045875360570 0.2757738865733187 0.6858403847987875 N
