#=======================================================
# FHI-aims file: geometry_Sc4H28C36N8O24.in
# Created using the Atomic Simulation Environment (ASE)
# Tue Dec 21 17:26:30 2021
#=======================================================
lattice_vector 5.6669996449999998 0.0000167540000000 -0.4466292010000000 
lattice_vector 0.0000225120000000 7.6683583139999998 -0.0000075760000000 
lattice_vector 0.2180902660000000 -0.0000197150000000 24.4243192150000006 
atom_frac 0.7606657246972544 0.1733398644871045 0.2503261926873890 Sc
atom_frac 0.7393389346148709 0.6733400193365922 0.2496735079974784 Sc
atom_frac 0.2393409367918052 0.8266659577333545 0.7496730104535346 Sc
atom_frac 0.2606535255114153 0.3266658029205445 0.7503278920217440 Sc
atom_frac 0.5194491349769095 0.4121110347552417 0.1918593608697279 H
atom_frac 0.9805588185474859 0.9121143483850105 0.3081430047482173 H
atom_frac 0.4805557159301159 0.5878908752919896 0.8081410374452106 H
atom_frac 0.0194389474080339 0.0878914738597274 0.6918580828667303 H
atom_frac 0.2917397518013090 0.1448785023875274 0.2615323904677567 H
atom_frac 0.2082649600581448 0.6448839516458590 0.2384701922324552 H
atom_frac 0.7082634774431324 0.8551260157738696 0.7384642933419274 H
atom_frac 0.7917311212945251 0.3551140462367074 0.7615288174350284 H
atom_frac 0.4001998519179465 0.0269535476025169 0.3127465325465978 H
atom_frac 0.0998129311747533 0.5269592074317726 0.1872540774497509 H
atom_frac 0.5997962923905577 0.9730509705761321 0.6872508405621645 H
atom_frac 0.9001761754289888 0.4730466148209516 0.8127427575381960 H
atom_frac 0.9524305640127011 0.4878443069901407 0.0458771025655977 H
atom_frac 0.5475979625325279 0.9878424388168909 0.4541252768084336 H
atom_frac 0.0475813246094816 0.5121536908628457 0.9541238338695380 H
atom_frac 0.4524261908912023 0.0121555590151345 0.5458779310438899 H
atom_frac 0.3288764975395750 0.6560930620182148 0.1114320032393508 H
atom_frac 0.1711335096370661 0.1560822726901847 0.3885682266764833 H
atom_frac 0.6711389964960333 0.3439140642423978 0.8885669519881391 H
atom_frac 0.8288624930246937 0.8439065967772164 0.6114328286891750 H
atom_frac 0.7849268968711201 0.1677279906362585 0.0751788628103327 H
atom_frac 0.7150601105363704 0.6677278480719123 0.4248221493178690 H
atom_frac 0.2150690900192202 0.8322673991326538 0.9248226016969386 H
atom_frac 0.2849253119111096 0.3322727579588758 0.5751787125789889 H
atom_frac 0.6008539592936371 0.5986691178535466 0.9827002033503478 H
atom_frac 0.8991741386582320 0.0986802002247131 0.5173007306156734 H
atom_frac 0.3991507499354795 0.4013249678429531 0.0173038772233483 H
atom_frac 0.1008501406823825 0.9013295341393929 0.4826992041188945 H
atom_frac 0.1011165074824945 0.0696773214461928 0.1197725139058790 C
atom_frac 0.3988818757962632 0.5696683220091214 0.3802266309876928 C
atom_frac 0.8988901855026654 0.9303271967120139 0.8802258709546040 C
atom_frac 0.6011106158624672 0.4303270677651556 0.6197739507489147 C
atom_frac 0.2572603750651509 0.9254181848059273 0.1289131942231876 C
atom_frac 0.2427439921771750 0.4254096007847534 0.3710862807840485 C
atom_frac 0.7427480813124133 0.0745785089879973 0.8710852228807013 C
atom_frac 0.7572555844226868 0.5745844849121865 0.6289136116531681 C
atom_frac 0.2098226960226128 0.7653761450994523 0.1035242259695437 C
atom_frac 0.2901793559649093 0.2653674843491557 0.3964767451277922 C
atom_frac 0.7901822493623102 0.2346244608811786 0.8964737175046764 C
atom_frac 0.7098201576635289 0.7346239932319633 0.6035247838690837 C
atom_frac 0.0062520153761980 0.7531222493598266 0.0693422823120571 C
atom_frac 0.4937466704590533 0.2531115707813427 0.4306569819164921 C
atom_frac 0.9937510564345042 0.2468770525720885 0.9306584928970666 C
atom_frac 0.5062493794286738 0.7468799068029740 0.5693428460295850 C
atom_frac 0.8584672635346491 0.8983065780265490 0.0557388454344974 C
atom_frac 0.6415301567604458 0.3983118531265005 0.4442649567189534 C
atom_frac 0.1415216069288618 0.1016888117617825 0.9442641266519872 C
atom_frac 0.3584587609290323 0.6016861447787463 0.5557367879479501 C
atom_frac 0.9069072974929355 0.0589169675516672 0.0817796275274958 C
atom_frac 0.5930859137130966 0.5589186281012742 0.4182202022589153 C
atom_frac 0.0930940109668938 0.9410797262638511 0.9182211154357489 C
atom_frac 0.4068995402356705 0.4410793698071699 0.5817798413571894 C
atom_frac 0.7087509610317326 0.6801049358502668 0.0108360861802836 C
atom_frac 0.7912624454248558 0.1801163078855268 0.4891641880853400 C
atom_frac 0.2912485053395812 0.3198917579744459 0.9891666702380280 C
atom_frac 0.2087460266358575 0.8198960346283357 0.5108338198822012 C
atom_frac 0.1160125787718654 0.2257538162195090 0.1570985984050353 C
atom_frac 0.3839969209368873 0.7257381696206550 0.3429004371607364 C
atom_frac 0.8839889028619652 0.7742493978844819 0.8428976440190042 C
atom_frac 0.6159973340882983 0.2742559160897641 0.6571001768208264 C
atom_frac 0.4747974234446204 0.9373460409350686 0.1653997173735959 C
atom_frac 0.0252033063322230 0.4373408279921095 0.3346001079467059 C
atom_frac 0.5252145124087235 0.0626532609747414 0.8345999916416460 C
atom_frac 0.9747838637414432 0.5626571699158233 0.6654011953348660 C
atom_frac 0.6758884734096710 0.8480705743494781 0.0184380964669941 N
atom_frac 0.8241130625906833 0.3480765474806446 0.4815608366469065 N
atom_frac 0.3241074505196337 0.1519195991834366 0.9815650045993184 N
atom_frac 0.1758847978323459 0.6519305788176624 0.5184377961279411 N
atom_frac 0.9041022592972823 0.6146655463397721 0.0405748515516393 N
atom_frac 0.5959205008681110 0.1146645784547289 0.4594251437300941 N
atom_frac 0.0959095978443756 0.3853298433952119 0.9594269031630137 N
atom_frac 0.4041002203161952 0.8853308112581502 0.5405755447906772 N
atom_frac 0.5568332059705057 0.0873634443663818 0.1787537492163551 O
atom_frac 0.9431668164489223 0.5873552522105709 0.3212466321937413 O
atom_frac 0.4431770294981945 0.9126371616029374 0.8212442909936615 O
atom_frac 0.0568256437137151 0.4126414416259648 0.6787547678233070 O
atom_frac 0.1541617540756377 0.3762004913937104 0.1394235786539824 O
atom_frac 0.3458764302303550 0.8761929266822790 0.3605785313478621 O
atom_frac 0.8458467652525811 0.6238040267563818 0.8605732018914980 O
atom_frac 0.6541090552145049 0.1238037671639063 0.6394206939877948 O
atom_frac 0.6400856929276060 0.4219578067256651 0.2221332807926970 O
atom_frac 0.8599239770458880 0.9219588837026365 0.2778683034645725 O
atom_frac 0.3599067199727131 0.5780454074145637 0.7778693466461065 O
atom_frac 0.1400809368377480 0.0780443304003313 0.7221304582904012 O
atom_frac 0.4330801353203029 0.1240445939561283 0.2865429784536531 O
atom_frac 0.0669265687903575 0.6240492281509377 0.2134579900405029 O
atom_frac 0.5669230309579092 0.8759560120293555 0.7134553419153706 O
atom_frac 0.9330642224629598 0.3759526819231951 0.7865409228921224 O
atom_frac 0.5742348196910713 0.7947990582904153 0.1819594651126765 O
atom_frac 0.9257671090827698 0.2947920098796786 0.3180402609877220 O
atom_frac 0.4257700312055662 0.2052054598769857 0.8180409332028804 O
atom_frac 0.0742218243521577 0.7052059880244813 0.6819610745391174 O
atom_frac 0.0713462845181070 0.1950864629711405 0.2077407671984375 O
atom_frac 0.4286545796047108 0.6950729689418296 0.2922597291425362 O
atom_frac 0.9286568502068986 0.8049297917375497 0.7922583714544374 O
atom_frac 0.5713343853263096 0.3049237249000781 0.7077407881038553 O
