#=======================================================
# FHI-aims file: geometry_Cu2H12C16N2O4.in
# Created using the Atomic Simulation Environment (ASE)
# Wed Dec  8 17:56:10 2021
#=======================================================
lattice_vector 5.3268485989999999 0.0023521810000000 -1.3270701370000000 
lattice_vector -2.5985238410000000 6.3949350210000002 -0.5883879390000000 
lattice_vector 0.1111622110000000 0.0845429370000000 10.0805469980000009 
atom_frac 0.4509702057348761 0.6088847117008100 0.6702046540385282 Cu
atom_frac 0.5490243817200877 0.3911184016330366 0.3297949220778449 Cu
atom_frac 0.8178358936932640 0.5125194102998522 0.1588302530932637 H
atom_frac 0.1821695751451103 0.4874979001522134 0.8411596800714065 H
atom_frac 0.8723260686316934 0.7708441690034178 0.4364617602765720 H
atom_frac 0.1276835345960522 0.2291589389072826 0.5635378082799676 H
atom_frac 0.7582988803543029 0.0695139820449384 0.4129138020478110 H
atom_frac 0.2416776075033551 0.9304828668720757 0.5870869937104786 H
atom_frac 0.3930146927041137 0.5545269411785088 0.0687437920052716 H
atom_frac 0.6070032883817049 0.4454744817151662 0.9312647171932441 H
atom_frac 0.1826607809764980 0.1005460418617119 0.0800178547990171 H
atom_frac 0.8173382728268878 0.8994619069133662 0.9199706874193865 H
atom_frac 0.1216153484440952 0.7523123818023192 0.9530676887712561 H
atom_frac 0.8783952667057449 0.2476813225766605 0.0469334481492822 H
atom_frac 0.1183824762958423 0.5275637597651297 0.3495925372933470 C
atom_frac 0.8815803384965690 0.4724160611510869 0.6503955444538009 C
atom_frac 0.8738569440827106 0.5608864446775996 0.2708938586607346 C
atom_frac 0.1261391383999070 0.4391119910159135 0.7291046492337828 C
atom_frac 0.7732387536613107 0.6978282454267489 0.3280571761149247 C
atom_frac 0.2267843035187695 0.3021639226282105 0.6719415410452783 C
atom_frac 0.6039175479096598 0.7969992681516017 0.2499433513194589 C
atom_frac 0.3960907607917505 0.2029975268361285 0.7500606383885399 C
atom_frac 0.6223889523853714 0.9928190108582058 0.3106464881845739 C
atom_frac 0.3776187266620212 0.0071840748968697 0.6893548097862165 C
atom_frac 0.4196893993474122 0.7089944630471552 0.1186295802997037 C
atom_frac 0.5803106439996882 0.2910007737160143 0.8813742223603711 C
atom_frac 0.2976175488408330 0.0096897364691344 0.1243712950927218 C
atom_frac 0.7023730624395271 0.9903054808499975 0.8756342407615139 C
atom_frac 0.2645847840080792 0.8160477850105536 0.0556532537391945 C
atom_frac 0.7354239737541945 0.1839615092857301 0.9443515246539392 C
atom_frac 0.4758580212644504 0.0977460501483591 0.2494715382967884 N
atom_frac 0.5241324775121399 0.9022524104123519 0.7505252439634021 N
atom_frac 0.2588517839386527 0.6454448878029595 0.4638236854184896 O
atom_frac 0.7411330079160408 0.3545424504889922 0.5361865764976770 O
atom_frac 0.1721986587170790 0.3812441114660530 0.2897183193725256 O
atom_frac 0.8277917204874825 0.6187653788011219 0.7102721468678937 O
