#=======================================================
# FHI-aims file: geometry_Cu4H40C64N16O16.in
# Created using the Atomic Simulation Environment (ASE)
# Wed Dec  8 17:56:10 2021
#=======================================================
lattice_vector 10.0491593399999992 -0.0001085160000000 -0.0000130520000000 
lattice_vector -0.0001129940000000 10.8103448820000008 -2.2209999319999998 
lattice_vector -0.0000162160000000 -0.4152504030000000 15.4519918050000005 
atom_frac 0.2369444514931872 0.2433517279181956 0.3114515801257484 Cu
atom_frac 0.7369434404087800 0.2566496545716817 0.1885399967009179 Cu
atom_frac 0.7630505600503241 0.7566504108528562 0.6885462149251965 Cu
atom_frac 0.2630575416966607 0.7433442876597951 0.8114611503815752 Cu
atom_frac 0.3510482464554343 0.3478000686369072 0.6453710716729120 H
atom_frac 0.8510334813018121 0.1522099688881298 0.8546166478011090 H
atom_frac 0.6489676624011553 0.6522050608496740 0.3546323305937804 H
atom_frac 0.1489485939496262 0.8478015964933407 0.1453857380063681 H
atom_frac 0.6728004432513047 0.3637324167388981 0.4784579585294893 H
atom_frac 0.1727841794065058 0.1362993424489787 0.0215391704635906 H
atom_frac 0.3272045193106622 0.6362648962750298 0.5215346127368861 H
atom_frac 0.8272118275333683 0.8637286412707964 0.9784571620990264 H
atom_frac 0.4158036973272559 0.0313629063775025 0.2506649297308244 H
atom_frac 0.9158086448586789 0.4686441089500162 0.2493316418921481 H
atom_frac 0.5841982800451149 0.9686456936987470 0.7493324997134891 H
atom_frac 0.0841813910628346 0.5313499331592196 0.7506721082001209 H
atom_frac 0.4157257997395122 0.8037113854774985 0.2459772440027025 H
atom_frac 0.9157216524936019 0.6962992945552529 0.2540302044806779 H
atom_frac 0.5842861287273423 0.1962981948693923 0.7540216206812290 H
atom_frac 0.0842683834532281 0.3036959526982130 0.7459808376569584 H
atom_frac 0.0343603689726777 0.8553733138231576 0.3805337586578759 H
atom_frac 0.5343566157587176 0.6446250665183014 0.1194732191566317 H
atom_frac 0.9656495691525108 0.1446251543910861 0.6194648031478351 H
atom_frac 0.4656433712746590 0.3553724714196065 0.8805252089269332 H
atom_frac 0.0526736051000967 0.0822082252214642 0.3799720595388082 H
atom_frac 0.5526730113620603 0.4177897501909839 0.1200271294249902 H
atom_frac 0.9473273770347319 0.9177891877407656 0.6200231147533586 H
atom_frac 0.4473170245941632 0.5822078626376097 0.8799732509118956 H
atom_frac 0.3169034060758734 0.6183639878098859 0.1820192857072414 H
atom_frac 0.8168946774993060 0.8816541174641087 0.3179922989251551 H
atom_frac 0.6831184734280457 0.3816403865416476 0.8179885381850768 H
atom_frac 0.1830963535810284 0.1183445255387311 0.6820108181482214 H
atom_frac 0.3188005378066309 0.3924939377003867 0.1882484282049859 H
atom_frac 0.8187945803305825 0.1075196594680961 0.3117534557399537 H
atom_frac 0.6812193514797261 0.6075104116338395 0.8117587449240207 H
atom_frac 0.1811994360474288 0.8924770232252326 0.6882467909068311 H
atom_frac 0.1086647376643769 0.4636116795863572 0.4241545691868113 H
atom_frac 0.6086504486498328 0.0363811684205473 0.0758504490220133 H
atom_frac 0.8913372396519395 0.5363914894194082 0.5758459626143662 H
atom_frac 0.3913505334889962 0.9636163195331378 0.9241466775463609 H
atom_frac 0.1029195792440163 0.6924487889030430 0.4321947707875752 H
atom_frac 0.6029083769527902 0.8075446686435866 0.0678167925875712 H
atom_frac 0.8970843882898621 0.3075544051200225 0.5678064117769139 H
atom_frac 0.3970936002807833 0.1924511089519498 0.9321839711370004 H
atom_frac 0.1615237919940214 0.2651776697112069 0.5155071135895568 C
atom_frac 0.6614973723363208 0.2348187472671554 0.9844899769267245 C
atom_frac 0.8384821658174390 0.7348303251927533 0.4844986420282353 C
atom_frac 0.3384886830460375 0.7651674534428210 0.0155022914225142 C
atom_frac 0.3068985052707305 0.2990295685027604 0.5051878589803565 C
atom_frac 0.8068743429252836 0.2009639117589685 0.9948012890287076 C
atom_frac 0.6931064573659074 0.7009727953434248 0.4948157929221112 C
atom_frac 0.1931047467082365 0.7990217086650159 0.0051999562275640 C
atom_frac 0.3913737892343577 0.3379446049891611 0.5786755627205268 C
atom_frac 0.8913534902636542 0.1620607681298337 0.9213141430954792 C
atom_frac 0.6086361489361991 0.6620576339216554 0.4213248353996946 C
atom_frac 0.1086295799784693 0.8379405653304841 0.0786867720224221 C
atom_frac 0.5672401952656047 0.3469608210510771 0.4872832873975313 C
atom_frac 0.0672193043754987 0.1530548225434885 0.0127106997134305 C
atom_frac 0.4327657623804342 0.6530338514291429 0.5127127873257750 C
atom_frac 0.9327707317422098 0.8469574981141009 0.9872872645004521 C
atom_frac 0.4858338289924476 0.3085725129398043 0.4127691725344890 C
atom_frac 0.9858121171933263 0.1914311195799953 0.0872231481480270 C
atom_frac 0.5141661579968969 0.6914212792986874 0.5872280699933016 C
atom_frac 0.0141779187162072 0.8085626975548762 0.9127747451156056 C
atom_frac 0.5379153827991061 0.2852057864848091 0.3186138793878541 C
atom_frac 0.0378944348584724 0.2148139890618949 0.1813825935883813 C
atom_frac 0.4620786335121921 0.7147852651608203 0.6813842635458940 C
atom_frac 0.9621045571028336 0.7851871445824443 0.8186131154962483 C
atom_frac 0.3344614236784694 0.9877853829302835 0.2790951281966016 C
atom_frac 0.8344659663985114 0.5122215160201051 0.2209045207100644 C
atom_frac 0.6655425438927836 0.0122214318064380 0.7209039861299831 C
atom_frac 0.1655250646444558 0.4877735062690789 0.7791006646012235 C
atom_frac 0.3330489337914956 0.8612567674111700 0.2766921975344303 C
atom_frac 0.8330473737122617 0.6387503278445619 0.2233133016887479 C
atom_frac 0.6669590142015381 0.1387491171902937 0.7233067831020463 C
atom_frac 0.1669426622359254 0.3612456746044045 0.7766933188369834 C
atom_frac 0.2240900459004393 0.8098438182293388 0.3126707579846055 C
atom_frac 0.7240825601298015 0.6901621503762739 0.1873382782175383 C
atom_frac 0.7759208873889069 0.1901593508671198 0.6873297738371704 C
atom_frac 0.2759124513603127 0.3098346073185921 0.8126639207077418 C
atom_frac 0.1214565578188029 0.8903594143680140 0.3513281557825608 C
atom_frac 0.6214491267890880 0.6096416100799685 0.1486780548862683 C
atom_frac 0.8785533803357524 0.1096417943786250 0.6486695056034578 C
atom_frac 0.3785458846876892 0.3903541674450253 0.8513227088222735 C
atom_frac 0.1297051263136808 0.0158522990719661 0.3509081364072203 C
atom_frac 0.6297031332983565 0.4841472614458622 0.1490920576911705 C
atom_frac 0.8702988412028604 0.9841498397897792 0.6490896586643232 C
atom_frac 0.3702888928647496 0.5158494462244717 0.8509088397097672 C
atom_frac 0.2167137823360933 0.6753814076916385 0.3093131907796476 C
atom_frac 0.7167093312239247 0.8246244115529462 0.1906958114954023 C
atom_frac 0.7832971509559102 0.3246218113991191 0.6906886425596072 C
atom_frac 0.2832876705144472 0.1753751366887712 0.8093067885322327 C
atom_frac 0.2739622553387591 0.5884261860935140 0.2385555300296787 C
atom_frac 0.7739560076449481 0.9115816727696924 0.2614525677913235 C
atom_frac 0.7260546486179323 0.4115780632218745 0.7614490400575067 C
atom_frac 0.2260399989652840 0.0884160401079654 0.7385504155942402 C
atom_frac 0.2730264447087123 0.4632747320351243 0.2404814058137178 C
atom_frac 0.7730187268644074 0.0367333871618172 0.2595222020847388 C
atom_frac 0.7269874739343082 0.5367304474256043 0.7595232979658633 C
atom_frac 0.2269772797271657 0.9632632455573639 0.7404767430491432 C
atom_frac 0.1555456475545967 0.5039164810586527 0.3735434611400096 C
atom_frac 0.6555338987681409 0.9960777423544299 0.1264605352322334 C
atom_frac 0.8444603101941726 0.4960866879874146 0.6264570706703196 C
atom_frac 0.3444640980476735 0.0039197705661707 0.8735372420880197 C
atom_frac 0.1530155222732432 0.6306302939731125 0.3766266453304042 C
atom_frac 0.6530068846499475 0.8693667687440580 0.1233803435420242 C
atom_frac 0.8469894403780887 0.3693738052384460 0.6233740201768967 C
atom_frac 0.3469911121845258 0.1306318243350191 0.8766214720299034 C
atom_frac 0.3554903772305807 0.2883598229459921 0.4231436224875084 N
atom_frac 0.8554670961627057 0.2116336783080826 0.0768457274423042 N
atom_frac 0.6445135902726025 0.7116406055475293 0.5768578097379377 N
atom_frac 0.1445189592036016 0.7883500318410054 0.9231539489139992 N
atom_frac 0.5198783547045026 0.3644033320633325 0.5703288399579590 N
atom_frac 0.0198623976479269 0.1356130707051619 0.9296605292924200 N
atom_frac 0.4801345687503870 0.6355959663681003 0.4296672525189323 N
atom_frac 0.9801286335952502 0.8644010353221887 0.0703357500460626 N
atom_frac 0.2343322694335725 0.0637023693291709 0.3154943438991253 N
atom_frac 0.7343352853434270 0.4363019508007683 0.1845028280872896 N
atom_frac 0.7656677176678672 0.9363015548519441 0.6845017662855710 N
atom_frac 0.2656597261320144 0.5636938017270765 0.8154972848625166 N
atom_frac 0.2172283885003098 0.4221402779522520 0.3077141396329708 N
atom_frac 0.7172213786795326 0.0778648258233758 0.1922882934141157 N
atom_frac 0.7827795594887023 0.5778648014594054 0.6922879610979251 N
atom_frac 0.2827726377158299 0.9221336422296387 0.8077102683549742 N
atom_frac 0.0826247268486568 0.2802380397595883 0.4551251278422371 O
atom_frac 0.5826084910271165 0.2197588317274678 0.0448778360278936 O
atom_frac 0.9173842161203682 0.7197558775553502 0.5448753684998380 O
atom_frac 0.4173566670075105 0.7802222679443315 0.9551020501197132 O
atom_frac 0.1374358459858627 0.2235021555539091 0.5834322319005238 O
atom_frac 0.6374071590651411 0.2765002847763539 0.9165656836901521 O
atom_frac 0.8625651364157891 0.7765170514007665 0.4165764296144162 O
atom_frac 0.3626067595138879 0.7235007740276841 0.0834280731525965 O
atom_frac 0.4589251396808722 0.2451740312519631 0.2559564842216631 O
atom_frac 0.9589043647940303 0.2548484899928737 0.2440359173206446 O
atom_frac 0.5410688766117390 0.7548152100368383 0.7440426928310375 O
atom_frac 0.0411005978439647 0.7451546290488125 0.7559633129699252 O
atom_frac 0.6625747991924201 0.3068010791490749 0.3123502707458173 O
atom_frac 0.1625513955032218 0.1932099090150743 0.1876412667696883 O
atom_frac 0.3374182219814230 0.6931879621524430 0.6876437002346948 O
atom_frac 0.8374475965181390 0.8067967306912107 0.8123532922342920 O
