#=======================================================
# FHI-aims file: geometry_CoH12C14N6O4.in
# Created using the Atomic Simulation Environment (ASE)
# Tue Dec 21 18:30:52 2021
#=======================================================
lattice_vector 5.3071755539999996 0.1190162070000000 0.9861073480000000 
lattice_vector 0.4051820050000000 8.4581304349999993 2.2788203450000002 
lattice_vector -0.0570776390000000 0.0197340190000000 9.4841668000000006 
atom_frac 0.0000131769412093 0.4999980101712821 0.0000022530269703 Co
atom_frac 0.3672100411836325 0.5823074286721946 0.6792265046020276 H
atom_frac 0.6327802161438427 0.4176961902233389 0.3207678931671226 H
atom_frac 0.8325252949529724 0.2420012577472334 0.8618514912222963 H
atom_frac 0.1674887381408112 0.7579889901076200 0.1381562998943481 H
atom_frac 0.9548897767023161 0.2484501328886779 0.4762846386378500 H
atom_frac 0.0451060744343579 0.7515545841820099 0.5237120768214325 H
atom_frac 0.8894963546121983 0.1098025547880823 0.6496997514756515 H
atom_frac 0.1104859924718724 0.8902059053868073 0.3502943055090313 H
atom_frac 0.2911298628752448 0.9482669198932713 0.7619092858482048 H
atom_frac 0.7088491711338206 0.0517356737963581 0.2380854707987439 H
atom_frac 0.3101243848625472 0.2001989348711106 0.3025976577575022 H
atom_frac 0.6898549869210412 0.7998000929652351 0.6974031925040193 H
atom_frac 0.2488999579256514 0.4858630349817616 0.6934191998365905 C
atom_frac 0.7511107327777963 0.5141450157898361 0.3065793892389054 C
atom_frac 0.9758773602798384 0.3141160107401930 0.7885158882186900 C
atom_frac 0.0241340070714884 0.6858837450434551 0.2114867323696076 C
atom_frac 0.0341976155822366 0.1836052019261061 0.5758169721765398 C
atom_frac 0.9657967720704831 0.8163936304519197 0.4241770918436815 C
atom_frac 0.2732173646507333 0.0864504284701866 0.5368245267349039 C
atom_frac 0.7267746708677834 0.9135555145067401 0.4631765084490171 C
atom_frac 0.3820870513649267 0.9732744202712241 0.6467741162978343 C
atom_frac 0.6178937147002654 0.0267305079838138 0.3532230624861370 C
atom_frac 0.3924063413027809 0.1124744876949180 0.3898546019442506 C
atom_frac 0.6075816698916723 0.8875338916477132 0.6101399399308179 C
atom_frac 0.4920923521324667 0.4121355457616147 0.0424055436359794 C
atom_frac 0.5079524228498044 0.5878471716070309 0.9576040236855191 C
atom_frac 0.0781796968026356 0.4326722295406784 0.8177348955023332 N
atom_frac 0.9218395692583742 0.5673226875846210 0.1822670120509926 N
atom_frac 0.0810569663608049 0.2989932190374702 0.6531493414166221 N
atom_frac 0.9189275680888329 0.7010116570767267 0.3468474580813207 N
atom_frac 0.2554071132613203 0.4067701902165907 0.5907102966257867 N
atom_frac 0.7445695581786325 0.5932383534115502 0.4092822216490716 N
atom_frac 0.2737633684182653 0.3573754167611655 0.0739754556268792 O
atom_frac 0.7262578395035886 0.6426194611886945 0.9260315313806159 O
atom_frac 0.6925536828845225 0.3329166403824504 0.0761385292306898 O
atom_frac 0.3074757269203728 0.6670698409187993 0.9238706768981049 O
