#=======================================================
# FHI-aims file: geometry_Ti2H36C44N4O8.in
# Created using the Atomic Simulation Environment (ASE)
# Tue Dec 21 17:32:20 2021
#=======================================================
lattice_vector 8.3092912620000003 0.0077658510000000 -0.2199261350000000 
lattice_vector -0.2852642260000000 10.2746398960000000 -0.1805937640000000 
lattice_vector -0.0408141660000000 0.0093648440000000 11.0202534849999996 
atom_frac 0.0000020698419263 0.5000034264093501 0.9999985908673068 Ti
atom_frac 0.9999974967334069 0.9999972617669425 0.4999983767577021 Ti
atom_frac 0.2171603368055059 0.3903183875048271 0.2843281513053880 H
atom_frac 0.7828490810719302 0.6096854401781399 0.7156726813880711 H
atom_frac 0.2599313369198697 0.4176275194952127 0.5081812888979869 H
atom_frac 0.7400682515336213 0.5823704762622839 0.4918192520638414 H
atom_frac 0.1908895035142706 0.6259053177414488 0.6124855655222278 H
atom_frac 0.8091016063335558 0.3740907355861864 0.3875174966649412 H
atom_frac 0.0290236980575571 0.7774306439545385 0.2695929090943139 H
atom_frac 0.9709663264281969 0.2225683266716914 0.7304138089204174 H
atom_frac 0.2017456031898917 0.5210954383059133 0.7726016220006857 H
atom_frac 0.7982553183659248 0.4789064502691432 0.2273981019384337 H
atom_frac 0.4626973641654216 0.4435820314107203 0.6899339840067924 H
atom_frac 0.5373050333240030 0.5564276412395587 0.3100668043680770 H
atom_frac 0.6332140965438099 0.3005632953362607 0.8193332574423451 H
atom_frac 0.3667905071016477 0.6994405360729418 0.1806674792367673 H
atom_frac 0.5412610870553181 0.2431923483797648 0.0269990595839644 H
atom_frac 0.4587400108251175 0.7568144046826077 0.9730025624307785 H
atom_frac 0.2768028875051058 0.3297215867967865 0.0950170386790816 H
atom_frac 0.7231993380886906 0.6702832205356871 0.9049827591150930 H
atom_frac 0.2785143296310437 0.1828140141472758 0.5903927400436473 H
atom_frac 0.7214754653822554 0.8171801019574687 0.4096011899564047 H
atom_frac 0.5544292209938178 0.2607569567097840 0.5296996628935204 H
atom_frac 0.4455595556440742 0.7392420231528689 0.4702979561684089 H
atom_frac 0.6638268585082017 0.1742815658211967 0.3357760367585954 H
atom_frac 0.3361703228292967 0.8257164317994139 0.6642244561960595 H
atom_frac 0.4918757266681765 0.0190858612519094 0.2071379862628575 H
atom_frac 0.5081285957436849 0.9809101868114924 0.7928598949942510 H
atom_frac 0.2161458074427927 0.9559054458191627 0.2784043650803483 H
atom_frac 0.7838524750341592 0.0440906110544645 0.7215888586842070 H
atom_frac 0.1792842090292694 0.8036984886124048 0.0827723445363162 H
atom_frac 0.8207226923942131 0.1963024229056742 0.9172265753086604 H
atom_frac 0.2735523164921432 0.0342620455255656 0.0507700495466636 H
atom_frac 0.7264570546050066 0.9657408114192026 0.9492280440448866 H
atom_frac 0.2234246964132822 0.1389540942273655 0.8512300724855280 H
atom_frac 0.7765834129971836 0.8610468155286739 0.1487697788579609 H
atom_frac 0.9912701937499546 0.7835388487483427 0.7146331491473674 H
atom_frac 0.0087319446508189 0.2164630364036952 0.2853693212801005 H
atom_frac 0.1223277876822877 0.5831294009657525 0.2621947503204396 C
atom_frac 0.8776720105891513 0.4168744325087204 0.7378077053341627 C
atom_frac 0.1876741509522404 0.4808285763094205 0.3301792556809602 C
atom_frac 0.8123280165128790 0.5191742829027606 0.6698223238687433 C
atom_frac 0.2119096306229125 0.4974635448054202 0.4554861906646365 C
atom_frac 0.7880924117268648 0.5025354198271544 0.5445171374062810 C
atom_frac 0.1735554859054673 0.6127418138449131 0.5147664475655844 C
atom_frac 0.8264404470323115 0.3872542340955150 0.4852385256257747 C
atom_frac 0.1077675460928376 0.7153059311275528 0.4476567346766842 C
atom_frac 0.8922222932103239 0.2846881766723257 0.5523462702725794 C
atom_frac 0.0818199173998337 0.6993716593298275 0.3216973641684859 C
atom_frac 0.9181773397822967 0.3006282830891323 0.6783049770103203 C
atom_frac 0.2811486898365488 0.4589594377211200 0.8247539105582929 C
atom_frac 0.7188510705125708 0.5410434233541820 0.1752476209842300 C
atom_frac 0.4245865529955778 0.4145539481022097 0.7795313918264314 C
atom_frac 0.5754142301579391 0.5854440483846944 0.2204673581491434 C
atom_frac 0.5198200215730181 0.3354922827153715 0.8522045191747836 C
atom_frac 0.4801808955538149 0.6645096066901673 0.1477942972694066 C
atom_frac 0.4688435847090915 0.3039586690978807 0.9677857240011958 C
atom_frac 0.5311536212637620 0.6960403034133620 0.0322129705807654 C
atom_frac 0.3238615359157108 0.3520615307566501 0.0063524612172827 C
atom_frac 0.6761392807311353 0.6479374389599145 0.9936463053754494 C
atom_frac 0.3304228202875592 0.1513007477400663 0.5054314397480510 C
atom_frac 0.6695730392960185 0.8486943344450780 0.4945653493718611 C
atom_frac 0.4827070977390946 0.1932851424385191 0.4715650147988484 C
atom_frac 0.5172852023797674 0.8067109124490129 0.5284353489071449 C
atom_frac 0.5430872421430168 0.1459771313809455 0.3630607629118714 C
atom_frac 0.4569075143625411 0.8540208714247300 0.6369360520559155 C
atom_frac 0.4474889193949068 0.0594137667161903 0.2914954967809962 C
atom_frac 0.5525094522136343 0.9405842324643250 0.7085022976924833 C
atom_frac 0.2955385413133699 0.0230438042276049 0.3308225370168927 C
atom_frac 0.7044572892058555 0.9769503038973893 0.6691751429807908 C
atom_frac 0.0826189598642060 0.7790345702981583 0.9000381767404448 C
atom_frac 0.9173879883395698 0.2209673119581197 0.0999634822064550 C
atom_frac 0.1626186400168734 0.8502443217633772 0.9955209221183098 C
atom_frac 0.8373943082609401 0.1497575591570524 0.0044772268668396 C
atom_frac 0.2138244201942712 0.9783724660294980 0.9764923791620176 C
atom_frac 0.7861862170185460 0.0216323372735161 0.0235048641725086 C
atom_frac 0.1861021068647162 0.0381960253914855 0.8654017526960160 C
atom_frac 0.8139023918717639 0.9618048871592323 0.1345980266367093 C
atom_frac 0.1039610581796069 0.9682977364164597 0.7701249611145472 C
atom_frac 0.8960434361278901 0.0317031769647471 0.2298739107232564 C
atom_frac 0.0530699587711538 0.8386880149088116 0.7881101199870669 C
atom_frac 0.9469357188879641 0.1613119218197170 0.2118914817219348 C
atom_frac 0.2317379702999318 0.4282644589561854 0.9361887311225631 N
atom_frac 0.7682605732042377 0.5717384055421348 0.0638100539316113 N
atom_frac 0.2381742679935854 0.0674352863792222 0.4364290844086653 N
atom_frac 0.7618226990969887 0.9325568743548943 0.5635685863582935 N
atom_frac 0.1016566187872030 0.5749984971805517 0.1418123541617646 O
atom_frac 0.8983383450458788 0.4250043642990491 0.8581927113460992 O
atom_frac 0.0738038299410846 0.8266451519459324 0.5046098402471912 O
atom_frac 0.9261884878937181 0.1733508996196562 0.4953941534384825 O
atom_frac 0.0327470702626869 0.6554057814887672 0.9127007965209160 O
atom_frac 0.9672479516990791 0.3445990281111193 0.0873024872314119 O
atom_frac 0.0720663987055445 0.0272313640645478 0.6650279967735173 O
atom_frac 0.9279345228502791 0.9727705245105012 0.3349717271655948 O
