#=======================================================
# FHI-aims file: geometry_MnH14C14N12O4.in
# Created using the Atomic Simulation Environment (ASE)
# Tue Dec 21 17:57:42 2021
#=======================================================
lattice_vector 7.6585273999999997 0.0028250660000000 -1.9562705570000001 
lattice_vector -1.0884377990000000 7.4107575639999999 -2.3604166630000001 
lattice_vector -0.0654446170000000 0.0831492480000000 7.8622736409999998 
atom_frac 0.0000000000000000 0.0000000000000000 0.0000000000000000 Mn
atom_frac 0.1834867205292312 0.6258399494872294 0.5904262464110985 H
atom_frac 0.8165123992518062 0.3741584507817565 0.4095735095146936 H
atom_frac 0.4145789337870199 0.6877887356667503 0.6752100977925651 H
atom_frac 0.5854216888188403 0.3122110047093899 0.3247904343900103 H
atom_frac 0.4568632787148276 0.4331889827083374 0.7964088964144337 H
atom_frac 0.5431360359744843 0.5668107618038365 0.2035913115774619 H
atom_frac 0.3941988750665714 0.9564250564038731 0.2642494255233530 H
atom_frac 0.6058002623657471 0.0435733153635596 0.7357528700310567 H
atom_frac 0.0852909135804865 0.3768983681853869 0.3413935222938989 H
atom_frac 0.9147111941989154 0.6231027407994605 0.6586052465168423 H
atom_frac 0.8058942858762279 0.2850108386155485 0.7952816044854244 H
atom_frac 0.1941048339048024 0.7149875616534305 0.2047181514403675 H
atom_frac 0.3390764936868110 0.1942809009506377 0.9144211414349143 H
atom_frac 0.6609230247364268 0.8057201735539580 0.0855807884373903 H
atom_frac 0.2810156232911823 0.7460063286691752 0.8884514426423918 C
atom_frac 0.7189825695642258 0.2539947784730074 0.1115476234106013 C
atom_frac 0.2994970970586053 0.6278770904934774 0.7030611184497531 C
atom_frac 0.7005022088050694 0.3721226682694693 0.2969378197278302 C
atom_frac 0.3278469814051307 0.4381075334664715 0.7050586092802575 C
atom_frac 0.6721523244585440 0.5618922252964754 0.2949403288973259 C
atom_frac 0.3448403515093972 0.0776823887705547 0.3289320557240387 C
atom_frac 0.6551602710964630 0.9223173516055851 0.6710684764585366 C
atom_frac 0.1843890011716667 0.2893939328350398 0.3626107619041221 C
atom_frac 0.8156118075168380 0.7106071660350680 0.6373889525302445 C
atom_frac 0.9446773132568396 0.2888420565956622 0.7999202653488311 C
atom_frac 0.0553220014324722 0.7111576879165115 0.2000799426430645 C
atom_frac 0.2139044811285515 0.2394492709056096 0.8657349512659849 C
atom_frac 0.7860950284690488 0.7605518178497593 0.1342657087920074 C
atom_frac 0.4194333538869373 0.1840943812496434 0.5009816175004218 N
atom_frac 0.5805672687189301 0.8159053591264965 0.4990189146821534 N
atom_frac 0.3177031199685985 0.3193002773767404 0.5199749005635255 N
atom_frac 0.6822975026372620 0.6806994629994065 0.4800256316190499 N
atom_frac 0.1970326432171277 0.1359746350885587 0.2388273467499289 N
atom_frac 0.8029679793887327 0.8640251052875814 0.7611731854326466 N
atom_frac 0.0249484305285819 0.3912101929195801 0.7277951899752821 N
atom_frac 0.9750521920772856 0.6087895474565598 0.2722053422072932 N
atom_frac 0.1955003255078225 0.3596279290563302 0.7721332993603979 N
atom_frac 0.8045002970980376 0.6403718113198097 0.2278672328221774 N
atom_frac 0.0561803564482588 0.1915871218848721 0.8860642264835619 N
atom_frac 0.9438189582410602 0.8084126226273014 0.1139359815083338 N
atom_frac 0.1658433602120155 0.8530019784039100 0.8728956634458173 O
atom_frac 0.8341546377351108 0.1469977844950777 0.1271029505410795 O
atom_frac 0.3776503145763571 0.7299916765233195 0.0359807762082057 O
atom_frac 0.6223475061137692 0.2700067136309272 0.9640199253412193 O
