#=======================================================
# FHI-aims file: geometry_Cu4H16C40N24O8.in
# Created using the Atomic Simulation Environment (ASE)
# Wed Dec  8 17:56:10 2021
#=======================================================
lattice_vector 6.7499201480000002 0.0000035590000000 0.0000250590000000 
lattice_vector 0.0000062560000000 10.1576358689999999 -0.0000411700000000 
lattice_vector 0.0000583050000000 -0.0000532130000000 15.5982891989999999 
atom_frac 0.7500062872548909 0.3413777923144181 0.2626682457188210 Cu
atom_frac 0.2499991856971208 0.1586205407138266 0.7626644251756005 Cu
atom_frac 0.7499986351848804 0.8413788474208489 0.2373334535680129 Cu
atom_frac 0.2499959781185908 0.6586215958220619 0.7373302741136030 Cu
atom_frac 0.4361399327923294 0.2339664982130643 0.1512152180972137 H
atom_frac 0.9361252027139527 0.2660315211208015 0.6512109991400549 H
atom_frac 0.0638747882085511 0.2339626907082888 0.1512126106596909 H
atom_frac 0.4361273922734911 0.7339677365913816 0.3487882048554525 H
atom_frac 0.5638652955523966 0.7660319054581208 0.8487865072075921 H
atom_frac 0.0638666921877160 0.7339688514869278 0.3487849563278331 H
atom_frac 0.9361304401794970 0.7660307905341526 0.8487846269604803 H
atom_frac 0.5638630210931410 0.2660296825972353 0.6512122382786600 H
atom_frac 0.4384370482956542 0.4456911735902551 0.3798273827806327 H
atom_frac 0.9384315996751696 0.0543112083600334 0.8798226872671933 H
atom_frac 0.0615659232900541 0.4456834297818730 0.3798260649242309 H
atom_frac 0.4384358647262588 0.9456880477318136 0.1201758682184675 H
atom_frac 0.5615607725465496 0.5542973852831280 0.6201762657979232 H
atom_frac 0.0615647397345995 0.9456891642394184 0.1201719860016581 H
atom_frac 0.9384318975604203 0.5543021756450132 0.6201769425505859 H
atom_frac 0.5615619561409559 0.0543093714508487 0.8798239338077920 H
atom_frac 0.7499948550394253 0.1704568707738899 0.4039223881034459 C
atom_frac 0.2499963255880787 0.3295557405227356 0.9039239575104077 C
atom_frac 0.7500029767256892 0.6704564458986223 0.0960803322240835 C
atom_frac 0.2499970398595083 0.8295464552769827 0.5960735673722368 C
atom_frac 0.7499896566787218 0.0762918547001945 0.3297883685394610 C
atom_frac 0.2499939156587487 0.4237111195511147 0.8297929993770765 C
atom_frac 0.7500068681364384 0.5762961444779293 0.1702138547258372 C
atom_frac 0.2499977937489889 0.9237075334146070 0.6702050225491831 C
atom_frac 0.7500028403388584 0.9031924678602155 0.4299214038513027 C
atom_frac 0.2500002977982021 0.5968168846038678 0.9299236679829974 C
atom_frac 0.7499990045210370 0.4031893949312104 0.0700806217359045 C
atom_frac 0.2499994250318950 0.0968098737194083 0.5700771159889086 C
atom_frac 0.7500006969873922 0.9946205882668339 0.4967334593821278 C
atom_frac 0.2500057314572075 0.5053924176323649 0.9967307532103575 C
atom_frac 0.7500069043642416 0.4946197687742497 0.0032716132148707 C
atom_frac 0.2499986053843629 0.0053768309119491 0.5032657015458071 C
atom_frac 0.7500102304829002 0.7658279150420670 0.4466690318240509 C
atom_frac 0.2500178038527637 0.7341875197420223 0.9466656101138753 C
atom_frac 0.7500052025179686 0.2658177752634002 0.0533309864129663 C
atom_frac 0.2499846274167865 0.2341724575646253 0.5533269236390765 C
atom_frac 0.7500088850468746 0.9484045765734876 0.5828389341522566 C
atom_frac 0.2500032122110839 0.5515912945437691 0.0828415493325991 C
atom_frac 0.7500020161308356 0.4484041556876334 0.9171608170603565 C
atom_frac 0.2499859728177611 0.0515977650154511 0.4171608678917594 C
atom_frac 0.3528095763120689 0.2828472606274984 0.2017485868878666 C
atom_frac 0.8528008628189884 0.2171493776085357 0.7017466742702041 C
atom_frac 0.1471923290621575 0.2828483171504316 0.2017482761234106 C
atom_frac 0.3528112423213657 0.7828479695198427 0.2982508741440880 C
atom_frac 0.6471897260680282 0.7171531119877131 0.7982492918559601 C
atom_frac 0.1471910320632688 0.7828480415694800 0.2982518455736809 C
atom_frac 0.8528143808203412 0.7171500864967301 0.7982489615073759 C
atom_frac 0.6471880600457709 0.2171484651812534 0.7017489278771976 C
atom_frac 0.3531520828439200 0.4011155997507884 0.3281249372283311 C
atom_frac 0.8531450700767638 0.0988823623451083 0.8281230413943490 C
atom_frac 0.1468533460219419 0.4011176410103445 0.3281278330410373 C
atom_frac 0.3531455616109227 0.9011189224663594 0.1718738648443150 C
atom_frac 0.6468501824851386 0.5988719746467128 0.6718799935323929 C
atom_frac 0.1468542323051594 0.9011160413080077 0.1718748373442835 C
atom_frac 0.8531429933295200 0.5988679644170601 0.6718751744361597 C
atom_frac 0.6468596667504161 0.0988794811947571 0.8281259371726436 C
atom_frac 0.7499986412297802 0.1269668597171432 0.4848003737162684 N
atom_frac 0.2500029942053317 0.3730377386181657 0.9847976850001885 N
atom_frac 0.7500081601271520 0.6269636184974418 0.0152046813988349 N
atom_frac 0.2499991796632912 0.8730325284108243 0.5151962228354492 N
atom_frac 0.7499975928410978 0.9456595914382929 0.3468156071219965 N
atom_frac 0.2500040180248249 0.5543518437257474 0.8468163648781157 N
atom_frac 0.7500056547958139 0.4456573892421218 0.1531866426400299 N
atom_frac 0.2499943020467583 0.0543437346192945 0.6531816305455821 N
atom_frac 0.7500097892760568 0.9110468453679912 0.6536773734107300 N
atom_frac 0.2499966396798926 0.5889537058885423 0.1536814680107312 N
atom_frac 0.7499967366330936 0.4110456822913592 0.8463247449873421 N
atom_frac 0.2499880316022356 0.0889505738079492 0.3463211464236338 N
atom_frac 0.7500131745686150 0.6526668161192718 0.4610004330586221 N
atom_frac 0.2500175751637528 0.8473477843490331 0.9609988908962424 N
atom_frac 0.7500009866970532 0.1526594796267560 0.0389989878348374 N
atom_frac 0.2499846463429591 0.3473365099194439 0.5389935991196922 N
atom_frac 0.4539272121499495 0.3427650393532957 0.2644823854746292 N
atom_frac 0.9539245356987039 0.1572331698043854 0.7644827209421906 N
atom_frac 0.0460779428822562 0.3427612443301057 0.2644823995876280 N
atom_frac 0.4539240359204158 0.8427660754489280 0.2355189902513430 N
atom_frac 0.5460780162141248 0.6572304108646776 0.7355174165345346 N
atom_frac 0.0460777296609649 0.8427691717819528 0.2355170810899239 N
atom_frac 0.9539228409930660 0.6572312524429264 0.7355167613249378 N
atom_frac 0.5460708219506643 0.1572352816556020 0.7644801706941210 N
atom_frac 0.7500008083290766 0.2942739814783407 0.3874773216396720 O
atom_frac 0.2500025084341290 0.2057286126811774 0.8874750319362974 O
atom_frac 0.7500056829271105 0.7942737288997248 0.1125241289903443 O
atom_frac 0.2499999755555606 0.7057263911329911 0.6125199160058302 O
atom_frac 0.7499873173802956 0.1172626011606610 0.2531871273435727 O
atom_frac 0.2499975783220378 0.3827444928961015 0.7531889775229104 O
atom_frac 0.7500076499701722 0.6172627711313793 0.2468178765728624 O
atom_frac 0.2499897625275907 0.8827358024935205 0.7468094692388690 O
