#=======================================================
# FHI-aims file: geometry_Co4H28C40N8Cl4O8.in
# Created using the Atomic Simulation Environment (ASE)
# Tue Dec 21 18:30:52 2021
#=======================================================
lattice_vector 8.5700509419999999 -0.0352163100000000 0.0000191020000000 
lattice_vector -2.7909505040000000 7.8779268069999997 -0.0000134130000000 
lattice_vector 0.0000340110000000 -0.0000132280000000 15.0096699349999998 
atom_frac 0.5213427261297029 0.4250084033610620 0.4027047741972184 Co
atom_frac 0.4786521825738247 0.0749903266508269 0.9027021860778320 Co
atom_frac 0.4786552110695225 0.5749868566106001 0.5972988485323967 Co
atom_frac 0.5213467294501796 0.9250150926255857 0.0972961067622720 Co
atom_frac 0.9269583472026992 0.3048518175242022 0.4727036912167151 H
atom_frac 0.0730462581633802 0.1951497296576790 0.9727076801448434 H
atom_frac 0.0730484041306596 0.6951561755360062 0.5272952678528782 H
atom_frac 0.9269459830975249 0.8048531210631111 0.0272926114129604 H
atom_frac 0.1353001012384567 0.1877628213450748 0.5286758448602882 H
atom_frac 0.8647003891107160 0.3122296000711486 0.0286800224317361 H
atom_frac 0.8647057487065553 0.8122388208359724 0.4713217817304454 H
atom_frac 0.1352913647355153 0.6877681709983748 0.9713236003079901 H
atom_frac 0.9316261952883239 0.1701753495101173 0.7945947204893289 H
atom_frac 0.0683691137544642 0.3298255579785519 0.2945969589679294 H
atom_frac 0.0683747601966331 0.8298148464648561 0.2054022398602342 H
atom_frac 0.9316293108571542 0.6701747816454856 0.7054039988169336 H
atom_frac 0.7307171514054077 0.2948165139919184 0.7376018289648628 H
atom_frac 0.2692865343770237 0.2051943945027261 0.2376039995419816 H
atom_frac 0.2692838774863018 0.7051774904230610 0.2623971300995223 H
atom_frac 0.7307167112947467 0.7948135828840608 0.7623936270577262 H
atom_frac 0.1631177321180814 0.1501480708887541 0.8397379124687063 H
atom_frac 0.8368768535415114 0.3498517156009344 0.3397415618479728 H
atom_frac 0.8368846855789301 0.8498573640555379 0.1602583816554528 H
atom_frac 0.1631198416955826 0.6501397307069964 0.6602600621683123 H
atom_frac 0.2686135192823472 0.0386646367099175 0.5746185908753176 H
atom_frac 0.7313875575937842 0.4613342884614512 0.0746220417745462 H
atom_frac 0.7313870956242638 0.9613280964827026 0.4253790357141157 H
atom_frac 0.2686093578726839 0.5386685831620353 0.9253829134375168 H
atom_frac 0.4863878528996112 0.9687101837542899 0.6909135075746705 H
atom_frac 0.5136102809240625 0.5312895241157917 0.1909160779425747 H
atom_frac 0.5136144179610793 0.0312876343210888 0.3090854514915408 H
atom_frac 0.4863881436692878 0.4687108155171131 0.8090902097396367 H
atom_frac 0.8141202277725624 0.3072760531717479 0.6007039867775177 C
atom_frac 0.1858843228244851 0.1927305913443078 0.1007063473666676 C
atom_frac 0.1858860361552601 0.6927268602327603 0.3992956385253308 C
atom_frac 0.8141122520887407 0.8072748174846326 0.8992919454764065 C
atom_frac 0.9282842855533958 0.2741797409097516 0.5430663019763742 C
atom_frac 0.0717198320805252 0.2258241693721530 0.0430696785330298 C
atom_frac 0.0717232203456889 0.7258269861540613 0.4569326570911301 C
atom_frac 0.9282755008545962 0.7741774258008081 0.9569312792568850 C
atom_frac 0.0449098700022574 0.2069185462642196 0.5747336187196554 C
atom_frac 0.9550908655055962 0.2930829165083253 0.0747381982304347 C
atom_frac 0.9550932288423156 0.7930818142492201 0.4252640078734374 C
atom_frac 0.0449028848799102 0.7069174022229846 0.9252640920346948 C
atom_frac 0.0479072471408770 0.1702574741777951 0.6655163912196471 C
atom_frac 0.9520912836445633 0.3297430142392912 0.1655203776468213 C
atom_frac 0.9520961922843300 0.8297403491168894 0.3344799028964047 C
atom_frac 0.0479035618804531 0.6702535012801931 0.8344825788506826 C
atom_frac 0.9331981267923127 0.2003475546119660 0.7239696081505543 C
atom_frac 0.0668019999228022 0.2996556759765810 0.2239724629380931 C
atom_frac 0.0668056532043977 0.7996477314683971 0.2760280184371311 C
atom_frac 0.9331945015677051 0.7003459244201198 0.7760284948503440 C
atom_frac 0.8179269636472454 0.2695244028358204 0.6916186722323090 C
atom_frac 0.1820762093003482 0.2304838102051150 0.1916211099854266 C
atom_frac 0.1820772303368372 0.7304721544657937 0.3083796205931506 C
atom_frac 0.8179250398298593 0.7695216195209867 0.8083785153260551 C
atom_frac 0.6928059646639825 0.3820568049901071 0.5651804421606316 C
atom_frac 0.3071972468545924 0.1179484448707200 0.0651810278438774 C
atom_frac 0.3071963796034538 0.6179448215252706 0.4348205156203947 C
atom_frac 0.6928009106036866 0.8820582404020884 0.9348172649983156 C
atom_frac 0.2194889770791306 0.1077440788676896 0.7843475108696937 C
atom_frac 0.7805071567507366 0.3922555285297166 0.2843520457517457 C
atom_frac 0.7805128798033180 0.8922524679820185 0.2156481170100619 C
atom_frac 0.2194891979034495 0.6077384549980707 0.7156515769787505 C
atom_frac 0.2768961048557017 0.0481433531383146 0.6465981862696709 C
atom_frac 0.7231005590549840 0.4518545246604191 0.1466009750771917 C
atom_frac 0.7231037554874720 0.9518506460496002 0.3533987740846883 C
atom_frac 0.2768966969943918 0.5481458097432110 0.8534019814206530 C
atom_frac 0.3850425979620767 0.0151878924137918 0.7049663912967006 C
atom_frac 0.6149556624558841 0.4848127272759585 0.2049695142686758 C
atom_frac 0.6149596729031757 0.9848099256593700 0.2950312352951698 C
atom_frac 0.3850431761316955 0.5151888835748653 0.7950354409398132 C
atom_frac 0.3479496741329910 0.0531515426745983 0.7906925413937814 N
atom_frac 0.6520460756405554 0.4468506230504943 0.2906955021075390 N
atom_frac 0.6520499190454315 0.9468488021676364 0.2093050852037592 N
atom_frac 0.3479515209803238 0.5531471741388145 0.7093087868619463 N
atom_frac 0.1720489026991032 0.1076054877793950 0.6977067585220170 N
atom_frac 0.8279478249255378 0.3923938313103151 0.1977105066647198 N
atom_frac 0.8279513716314496 0.8923897826297633 0.3022908680701165 N
atom_frac 0.1720486031422368 0.6076039606541457 0.8022931160690803 N
atom_frac 0.3288731824662107 0.1694490390299990 0.4102699138190218 Cl
atom_frac 0.6711278577336444 0.3305472050622172 0.9102699574949257 Cl
atom_frac 0.6711259233089563 0.8305462261554197 0.5897277127745966 Cl
atom_frac 0.3288744865429221 0.6694544214487264 0.0897283353374263 Cl
atom_frac 0.6959056217382197 0.4111441593958887 0.4813078670465387 O
atom_frac 0.3040946644322347 0.0888586667401015 0.9813104116766170 O
atom_frac 0.3040979644959095 0.5888612807810106 0.5186937569734766 O
atom_frac 0.6959039070157048 0.9111492897528491 0.0186878811661870 O
atom_frac 0.5930824007415653 0.4155743574013542 0.6196548148837665 O
atom_frac 0.4069207780119443 0.0844285365128314 0.1196557530723084 O
atom_frac 0.4069210386653737 0.5844234659021978 0.3803468091296338 O
atom_frac 0.5930749689219682 0.9155743298758381 0.8803425397695435 O
