#=======================================================
# FHI-aims file: geometry_Co4H40C40N16O16.in
# Created using the Atomic Simulation Environment (ASE)
# Tue Dec 21 18:30:52 2021
#=======================================================
lattice_vector 7.3759858149999999 0.0000000000000000 0.0000000000000000 
lattice_vector -2.1745786830000000 12.2865247249999996 0.0000000000000000 
lattice_vector 0.0000000000000000 0.0000000000000000 13.4196000000000009 
atom_frac 0.2183727234101767 0.1532361706943135 0.0729134996572185 Co
atom_frac 0.2816268304279745 0.8467642586378334 0.5729142448359141 Co
atom_frac 0.7816291477453349 0.8467642586378334 0.9270865003427816 Co
atom_frac 0.7183720892726839 0.1532353567945179 0.4270865003427815 Co
atom_frac 0.6586381853232908 0.5580878363470703 0.1210289427404661 H
atom_frac 0.8413619358966429 0.4419125929850765 0.6210296879191617 H
atom_frac 0.3413623300812461 0.4419125929850765 0.8789718024382225 H
atom_frac 0.1586385795078868 0.5580878363470703 0.3789718024382225 H
atom_frac 0.8719670995280639 0.5264775959664192 0.0786267847029691 H
atom_frac 0.6280330216918771 0.4735228333657204 0.5786275298816648 H
atom_frac 0.1280350115803515 0.4735236472655231 0.9213739604757194 H
atom_frac 0.3719674937126599 0.5264775959664192 0.4213732152970309 H
atom_frac 0.8178188553376415 0.5184085933624304 0.2083176845807629 H
atom_frac 0.6821812658822992 0.4815918359697093 0.7083191749381471 H
atom_frac 0.1821827758649804 0.4815910220699139 0.7916823154192373 H
atom_frac 0.3178192495222377 0.5184085933624304 0.2916815702405415 H
atom_frac 0.3850911649466867 0.4100044652781207 0.1156256520313548 H
atom_frac 0.1149083888914576 0.5899959640540261 0.6156263972100504 H
atom_frac 0.6149109461617215 0.5899967779538215 0.8843728576112539 H
atom_frac 0.8850907707620905 0.4100044652781207 0.3843743479686452 H
atom_frac 0.6243829455392529 0.1283511843500591 0.0960401204208736 H
atom_frac 0.8756160598826030 0.8716500588818832 0.5960408655995693 H
atom_frac 0.3756189256162656 0.8716492449820877 0.9039576440430395 H
atom_frac 0.1243830997709523 0.1283503704502564 0.4039598795791264 H
atom_frac 0.1194800623615180 0.6809793808476599 0.2238315598080405 H
atom_frac 0.3805192515237367 0.3190202345846843 0.7238315598080405 H
atom_frac 0.8805190972920371 0.3190210484844798 0.7761691853706552 H
atom_frac 0.6194796681769220 0.6809793808476599 0.2761684401919595 H
atom_frac 0.3283849263239774 0.7027625950591984 0.1540425944141433 H
atom_frac 0.1716143875612772 0.2972370203731458 0.6540425944141433 H
atom_frac 0.6716153491276560 0.2972370203731458 0.8459581507645524 H
atom_frac 0.8283845321393813 0.7027625950591984 0.3459581507645524 H
atom_frac 0.1132304534645314 0.7080480603517429 0.0929424125905385 H
atom_frac 0.3867688604207231 0.2919515550806011 0.5929424125905385 H
atom_frac 0.8867684662361270 0.2919515550806011 0.9070583325881572 H
atom_frac 0.6132300592799352 0.7080480603517429 0.4070575874094615 H
atom_frac 0.1665724519954637 0.8981123830359579 0.0328042564607003 H
atom_frac 0.3334268618897909 0.1018872323963862 0.5328050016393959 H
atom_frac 0.8334267076580844 0.1018880462961818 0.9671949983606042 H
atom_frac 0.6665734135618494 0.8981123830359579 0.4671957435392998 H
atom_frac 0.3087294957731146 0.0756902395766730 0.2978978509046470 H
atom_frac 0.1912698181121399 0.9243093758556711 0.7978985960833428 H
atom_frac 0.6912721354295002 0.9243093758556711 0.7021021490953532 H
atom_frac 0.8087275058846404 0.0756894256768774 0.2021014039166573 H
atom_frac 0.7608908707996419 0.5057532653929542 0.1329398789829810 C
atom_frac 0.7391078946693171 0.4942471639391925 0.6329406241616766 C
atom_frac 0.2391082888539131 0.4942471639391925 0.8670601210170190 C
atom_frac 0.2608912649842381 0.5057532653929542 0.3670601210170191 C
atom_frac 0.4894760480363162 0.3584089153411938 0.1131777400220599 C
atom_frac 0.0105235058018351 0.6415915139909530 0.6131784852007485 C
atom_frac 0.5105274188230738 0.6415923278907485 0.8868200244418603 C
atom_frac 0.9894756538517130 0.3584089153411938 0.3868230051566357 C
atom_frac 0.6167169232940071 0.2138277551059106 0.1039345435035344 C
atom_frac 0.8832831979259270 0.7861726742262365 0.6039360338609185 C
atom_frac 0.3832851878144013 0.7861734881260319 0.8960624757816902 C
atom_frac 0.1167157217747317 0.2138269412061078 0.3960654564964656 C
atom_frac 0.7581903749979446 0.3016223124883695 0.1146733136606173 C
atom_frac 0.7418097462219890 0.6983781168437773 0.6146755491966971 C
atom_frac 0.2418099004536955 0.6983773029439746 0.8853251959819988 C
atom_frac 0.2581907691825407 0.3016223124883695 0.3853266863393827 C
atom_frac 0.9591966418582487 0.3018933411213212 0.1148558824406081 C
atom_frac 0.5408034793616850 0.6981070882108186 0.6148566276193037 C
atom_frac 0.0408052292972628 0.6981070882108186 0.8851456079167761 C
atom_frac 0.4591970360428448 0.3018933411213212 0.3851433723806963 C
atom_frac 0.1920681462055995 0.7259392057260499 0.1617432710363929 C
atom_frac 0.3079298119286805 0.2740604097062943 0.6617432710363929 C
atom_frac 0.8079307734950589 0.2740604097062943 0.8382567289636071 C
atom_frac 0.6920675120681069 0.7259383918262544 0.3382567289636071 C
atom_frac 0.2020493222149399 0.9178527087528395 0.1099183284151550 C
atom_frac 0.2979486359193402 0.0821469066795046 0.6099183284151550 C
atom_frac 0.7979509532367005 0.0821469066795046 0.8900816715848450 C
atom_frac 0.7020502837813184 0.9178527087528395 0.3900816715848451 C
atom_frac 0.2697033448305248 0.0067130455394064 0.2485506274404585 C
atom_frac 0.2302946133037481 0.9932865698929378 0.7485506274404585 C
atom_frac 0.7302982863720900 0.9932865698929378 0.7514501177382301 C
atom_frac 0.7697027106930321 0.0067122316396109 0.2514493725595415 C
atom_frac 0.2535816612750992 0.8973530145238016 0.2708530805687204 C
atom_frac 0.2464160569062842 0.1026457870087398 0.7708523353900247 C
atom_frac 0.7464181342707477 0.1026449731089443 0.7291476646099753 C
atom_frac 0.7535812670905032 0.8973530145238016 0.2291476646099753 C
atom_frac 0.2643846802793491 0.8459926816286940 0.3689722495454433 C
atom_frac 0.2356143936530160 0.1540061199038547 0.8689737399028274 C
atom_frac 0.7356162310645901 0.1540044921042565 0.6310255149184770 C
atom_frac 0.7643818145456792 0.8459934955284896 0.1310270052758682 C
atom_frac 0.6731345027915978 0.3926464242719376 0.1202927061909449 N
atom_frac 0.8268656184283358 0.6073540050602091 0.6202949417270247 N
atom_frac 0.3268687241148954 0.6073540050602091 0.8797058034516709 N
atom_frac 0.1731335412252193 0.3926464242719376 0.3797072938090551 N
atom_frac 0.4515090295540461 0.2499583949683526 0.1029561238785064 N
atom_frac 0.0484905242841052 0.7500420343637870 0.6029568690572020 N
atom_frac 0.5484928416014654 0.7500420343637870 0.8970408954067182 N
atom_frac 0.9515086353694502 0.2499583949683526 0.3970438761214936 N
atom_frac 0.2124192620120128 0.8425270962859701 0.1808884020388107 N
atom_frac 0.2875800518732420 0.1574725191463742 0.6808891472174992 N
atom_frac 0.7875810134396276 0.1574725191463742 0.8191108527824937 N
atom_frac 0.7124186278745200 0.8425262823861674 0.3191108527824937 N
atom_frac 0.2358389935951308 0.0183461153617657 0.1489418462547292 N
atom_frac 0.2641592044920387 0.9816543139703811 0.6489425914334248 N
atom_frac 0.7641628775603879 0.9816543139703811 0.8510581537452708 N
atom_frac 0.7358397152086198 0.0183453014619630 0.3510574085665752 N
atom_frac 0.9935811461655392 0.2030924167614857 0.1040589883454075 O
atom_frac 0.5064176193034130 0.7969080125706611 0.6040582431667119 O
atom_frac 0.0064207249899724 0.7969080125706611 0.8959425020119839 O
atom_frac 0.4935815403501423 0.2030924167614857 0.3959402664759040 O
atom_frac 0.0744767145655203 0.3871688786269090 0.1232540463203051 O
atom_frac 0.4255228392726310 0.6128315507052378 0.6232533011416166 O
atom_frac 0.9255253965428879 0.6128323646050334 0.8767496795731589 O
atom_frac 0.5744760804280276 0.3871680647271064 0.3767459536796949 O
atom_frac 0.2794545796470020 0.9149096470808618 0.4427747473844192 O
atom_frac 0.2205428985814777 0.0850883405518914 0.9427754925631150 O
atom_frac 0.7205474474950152 0.0850867127522932 0.5572245074368851 O
atom_frac 0.7794503581623574 0.9149104609806571 0.0572245074368851 O
atom_frac 0.2580259455426913 0.7457470851262188 0.3790545172732394 O
atom_frac 0.2419771956426048 0.2542517164063227 0.8790567528093263 O
atom_frac 0.7419749658012407 0.2542500886067245 0.6209417568332896 O
atom_frac 0.7580230798090284 0.7457478990260213 0.1209432471906737 O
