#=======================================================
# FHI-aims file: geometry_Ti2H52C68N4O8.in
# Created using the Atomic Simulation Environment (ASE)
# Tue Dec 21 17:32:20 2021
#=======================================================
lattice_vector 8.1262882750000003 -0.0000123070000000 0.0000105050000000 
lattice_vector -0.0000217130000000 10.7066716690000003 -4.1121386810000002 
lattice_vector 0.0000199020000000 -0.0362484130000000 15.4223590999999995 
atom_frac 0.4999946860082786 0.4999970736346739 0.9999982463406525 Ti
atom_frac 0.0000025725694996 0.4999979824773391 0.5000007452906489 Ti
atom_frac 0.7293587615241888 0.2131941227337393 0.7575641353560130 H
atom_frac 0.2293571486572219 0.7868052038376375 0.7424369792891170 H
atom_frac 0.2706342901756074 0.7868132692638382 0.2424384241092312 H
atom_frac 0.7706359030259620 0.2131900242411787 0.2575590948051101 H
atom_frac 0.8454022616764191 0.2087267866223925 0.6052339043305041 H
atom_frac 0.3453950042523743 0.7912765479860369 0.8947687693231714 H
atom_frac 0.1545981734708732 0.7912843513392361 0.3947715991620413 H
atom_frac 0.6545980474323938 0.2087186778955399 0.1052266557759580 H
atom_frac 0.7648546528758829 0.6049396111287209 0.6902476768157586 H
atom_frac 0.2648493862621990 0.3950607339894673 0.8097543094648573 H
atom_frac 0.2351408599701941 0.3950715334189566 0.3097597736638988 H
atom_frac 0.7351412042676985 0.6049335636400102 0.1902428133592693 H
atom_frac 0.6400839255315631 0.6068949612687576 0.8380286983108579 H
atom_frac 0.1400879863501672 0.3931041515093623 0.6619698873085511 H
atom_frac 0.3599066650114793 0.3931105676357446 0.1619753096181853 H
atom_frac 0.8599062959175398 0.6068938745020772 0.3380249875835376 H
atom_frac 0.8706511655671959 0.5206697097047197 0.9520117390543278 H
atom_frac 0.3706660900718219 0.4793318022426973 0.5479871721563256 H
atom_frac 0.1293406555617267 0.4793329905087375 0.0479843821446764 H
atom_frac 0.6293503425122323 0.5206653109255229 0.4520139434171497 H
atom_frac 0.0952999719522225 0.6775936956971477 0.9882378011125256 H
atom_frac 0.5953046029649728 0.3223997227717419 0.5117645144884833 H
atom_frac 0.9047016937317309 0.3223996824847006 0.0117636154118728 H
atom_frac 0.4047019850022338 0.6775871115289790 0.4882351572056863 H
atom_frac 0.2803771928528390 0.8021668057931494 0.0765043919482977 H
atom_frac 0.7803779108721470 0.1978374603060402 0.4234979118859529 H
atom_frac 0.7196232422721068 0.1978340511150448 0.9234990186661493 H
atom_frac 0.2196188325548150 0.8021652377158401 0.5764975603161135 H
atom_frac 0.4853604571839298 0.9725483219904020 0.1067520516551070 H
atom_frac 0.9853591823005701 0.0274582735260935 0.3932473519879239 H
atom_frac 0.5146399779511271 0.0274543958108069 0.8932492615013815 H
atom_frac 0.0146412528575652 0.9725472246284710 0.6067475700061706 H
atom_frac 0.0938869081442135 0.2433965381901686 0.1609908910259605 H
atom_frac 0.5938910259949849 0.7566035558980814 0.3390092576410950 H
atom_frac 0.9061086046738610 0.7566015207811672 0.8390137187920103 H
atom_frac 0.4061217148714746 0.2433935506742060 0.6609899109484942 H
atom_frac 0.8901467510023265 0.0736899398501052 0.1253306247464181 H
atom_frac 0.3901476970580049 0.9263089934480319 0.3746772401385883 H
atom_frac 0.1098512229563582 0.9263090671484162 0.8746781283023639 H
atom_frac 0.6098576603406798 0.0736853327624232 0.6253283196161590 H
atom_frac 0.7552694226490360 0.9434124694151078 0.1723734323832672 H
atom_frac 0.2552745654717583 0.0565889279170548 0.3276261955114706 H
atom_frac 0.2447273207577041 0.0565865068207501 0.8276262347347229 H
atom_frac 0.7447283308052590 0.9434091112876714 0.6723725733479214 H
atom_frac 0.5447215465056630 0.7750093444926166 0.1261817448748630 H
atom_frac 0.0447285935737085 0.2249915693393376 0.3738180409315817 H
atom_frac 0.4552751969045516 0.2249905643869781 0.8738175225092349 H
atom_frac 0.9552767638540232 0.7750092787855818 0.6261827737006626 H
atom_frac 0.3944766738347454 0.1935156018083575 0.1523696104051737 H
atom_frac 0.8944797854719724 0.8064898303914915 0.3476237711826968 H
atom_frac 0.6055163778600702 0.8064861723544754 0.8476288575125254 H
atom_frac 0.1055292637109986 0.1935147219458386 0.6523676565715206 H
atom_frac 0.6752618973247307 0.4098809603128260 0.8070023643711934 C
atom_frac 0.1752693201391580 0.5901182354491253 0.6929968438583175 C
atom_frac 0.3247299238012573 0.5901273687215393 0.1930010933508015 C
atom_frac 0.8247323455656926 0.4098760512069147 0.3069970339862068 C
atom_frac 0.7361616418797539 0.2980898639071441 0.7413080613852758 C
atom_frac 0.2361594957198321 0.7019075954204367 0.7586886556649121 C
atom_frac 0.2638326403960533 0.7019184629328163 0.2586947473407122 C
atom_frac 0.7638384782573127 0.2980848237466631 0.2413053726536846 C
atom_frac 0.8017415973960381 0.2958946795560067 0.6573340349083736 C
atom_frac 0.3017341293613924 0.7041094786445896 0.8426656757769423 C
atom_frac 0.1982563766080716 0.7041173888492979 0.3426704198561126 C
atom_frac 0.6982638446248828 0.2958866776891468 0.1573287005913642 C
atom_frac 0.8137708031133356 0.4064354732967884 0.6375769373968228 C
atom_frac 0.3137712615976299 0.5935677864847549 0.8624251109826917 C
atom_frac 0.1862308626147069 0.5935765929155323 0.3624268683711875 C
atom_frac 0.6862316346828550 0.4064311853637009 0.1375732581428082 C
atom_frac 0.7555180222619314 0.5187823002774721 0.7043745225250504 C
atom_frac 0.2555145158479277 0.4812189406652010 0.7956225280579335 C
atom_frac 0.2444799517384055 0.4812278984458941 0.2956294337170391 C
atom_frac 0.7444809969920101 0.5187781505066837 0.2043720975724952 C
atom_frac 0.6868136400982363 0.5202448334583207 0.7871287141976283 C
atom_frac 0.1868179146565367 0.4797534386058545 0.7128656931423479 C
atom_frac 0.3131769504546114 0.4797616193009945 0.2128722980171674 C
atom_frac 0.8131812899054367 0.5202427155320637 0.2871280342304062 C
atom_frac 0.8507049141396051 0.6158904633934981 0.0001794836384192 C
atom_frac 0.3507158860615435 0.3841102204597960 0.4998204724107184 C
atom_frac 0.1492905987009436 0.3841085018547901 0.9998169385045801 C
atom_frac 0.6492943936452917 0.6158859644520902 0.5001823408891328 C
atom_frac 0.9755923741836979 0.7043356102575302 0.0211903676103518 C
atom_frac 0.4755992846463927 0.2956635016870309 0.4788122412268693 C
atom_frac 0.0244043692142171 0.2956605658498860 0.9788098497142246 C
atom_frac 0.5244060727529671 0.7043280112115867 0.5211899747639279 C
atom_frac 0.9446140814723947 0.8272698331828394 0.0817928274983970 C
atom_frac 0.4446169401123399 0.1727310751031794 0.4182096541015953 C
atom_frac 0.0553838925071801 0.1727300822898599 0.9182083868705035 C
atom_frac 0.5553834950009744 0.8272632357209986 0.5817913626893798 C
atom_frac 0.2392860742808054 0.8988093219162964 0.0952692163545308 C
atom_frac 0.7392875983386630 0.1011948520193613 0.4047337672931448 C
atom_frac 0.7607143608444459 0.1011924720300996 0.9047350925162051 C
atom_frac 0.2607140673727598 0.8988050502741917 0.5952635531038412 C
atom_frac 0.3544692557019289 0.9948500432840179 0.1127886862058105 C
atom_frac 0.8544691217752315 0.0051543863676002 0.3872116150739160 C
atom_frac 0.6455299488510916 0.0051526855019333 0.8872158719265856 C
atom_frac 0.1455325439497698 0.9948483094626966 0.6127832081312192 C
atom_frac 0.3034657107747165 0.1190594295717204 0.1375642782025750 C
atom_frac 0.8034691477650925 0.8809458112086759 0.3624343636047698 C
atom_frac 0.6965322632054693 0.8809423599773895 0.8624387326789107 C
atom_frac 0.1965411319755503 0.1190568890259840 0.6375617575873136 C
atom_frac 0.1356905282054015 0.1472193465181846 0.1431107218855985 C
atom_frac 0.6356950724348210 0.8527799087274631 0.3568891461670844 C
atom_frac 0.8643074457646804 0.8527805821379102 0.8568943864538384 C
atom_frac 0.3643164378575250 0.1472171978434105 0.6431100224229739 C
atom_frac 0.0205184247732220 0.0514287613043649 0.1247119179794964 C
atom_frac 0.5205196990415502 0.9485683707603980 0.3752907829073636 C
atom_frac 0.9794807797637263 0.9485683650274696 0.8752930915709742 C
atom_frac 0.4794856583688301 0.0514278141458320 0.6247120303943350 C
atom_frac 0.0699566727928058 0.9264073628248964 0.1017590633161091 C
atom_frac 0.5699568505682038 0.0735908176096274 0.3982438497533281 C
atom_frac 0.9300449928939541 0.0735897613125260 0.8982452972383542 C
atom_frac 0.4300423539795232 0.9264053563033841 0.6017557185752338 C
atom_frac 0.7862760805352026 0.8521890213487000 0.1210639154668200 C
atom_frac 0.2862802289472341 0.1478115123450721 0.3789354399118779 C
atom_frac 0.2137243545960743 0.1478118267705710 0.8789368991672719 C
atom_frac 0.7137214367487204 0.8521846615707604 0.6210641284157604 C
atom_frac 0.6679734186763326 0.7589973136720757 0.0964680685761791 C
atom_frac 0.1679791751877104 0.2410010808684646 0.4035315260024532 C
atom_frac 0.3320270164524500 0.2410007255298225 0.9035307002841366 C
atom_frac 0.8320261822327808 0.7589969649307805 0.5964691898412865 C
atom_frac 0.6978909725892352 0.6422739363212316 0.0360724427691466 N
atom_frac 0.1979007487618389 0.3577263878196462 0.4639250319116358 N
atom_frac 0.3021082319739604 0.3577259659695002 0.9639248776287561 N
atom_frac 0.8021070698119318 0.6422725884289305 0.5360746352021978 N
atom_frac 0.6108214582017482 0.4102996131759227 0.8870933690981604 O
atom_frac 0.1108378851034288 0.5897041132145802 0.6129084317549386 O
atom_frac 0.3891715934929962 0.5897068483751512 0.1129102390960739 O
atom_frac 0.8891723946258878 0.4102929779742581 0.3870861938699548 O
atom_frac 0.8766680964459540 0.4026997666184541 0.5562558893952243 O
atom_frac 0.3766681765554765 0.5973008440633195 0.9437486090028531 O
atom_frac 0.1233323387007275 0.5973094972667710 0.4437478175847361 O
atom_frac 0.6233310280045500 0.4026990626218704 0.0562500093852307 O
