#=======================================================
# FHI-aims file: geometry_Fe2H24C28N4O12.in
# Created using the Atomic Simulation Environment (ASE)
# Tue Dec 21 18:09:01 2021
#=======================================================
lattice_vector 4.8779708939999997 -0.0016938660000000 -0.0007428390000000 
lattice_vector -2.4427849859999999 10.7112945120000003 -0.0983882860000000 
lattice_vector -0.0019376160000000 0.2296562200000000 12.6189356069999992 
atom_frac 0.5000012563980363 0.0000006449381473 0.0000001175921440 Fe
atom_frac 0.5000015742488911 0.0000017681022442 0.4999995079719709 Fe
atom_frac 0.8824038418085253 0.0958060825586600 0.3233855696969457 H
atom_frac 0.7857224710406571 0.9043852737777485 0.1768029136330397 H
atom_frac 0.1175996191325056 0.9041960340496545 0.6766164692088024 H
atom_frac 0.2142672780873696 0.0956140233781255 0.8231998949424834 H
atom_frac 0.8989067422124534 0.4869477895752041 0.2798158110430932 H
atom_frac 0.4124486796336697 0.5128028941332375 0.2195708312543658 H
atom_frac 0.1010953572372202 0.5130516114455047 0.7201822443100879 H
atom_frac 0.5875508693640299 0.4871955050977094 0.7804303859773042 H
atom_frac 0.5669172987806661 0.4672934488169174 0.4328318568118872 H
atom_frac 0.1001972545643071 0.5325071487706479 0.0664855517301532 H
atom_frac 0.4330832343470946 0.5327069193719396 0.5671646210702548 H
atom_frac 0.8998125699818544 0.4674913030358638 0.9335132891367407 H
atom_frac 0.4204499793303071 0.2635674648783848 0.5285441249147168 H
atom_frac 0.1565216515604250 0.7363669653664289 0.9712416748666043 H
atom_frac 0.5795494139955865 0.7364347190437144 0.4714547444369685 H
atom_frac 0.8434845482768835 0.2636324362974278 0.0287563807329647 H
atom_frac 0.4139446697227881 0.2418538509522961 0.1357826946316862 H
atom_frac 0.1720202767818508 0.7583411026887817 0.3641812437903268 H
atom_frac 0.5860589796625530 0.7581445489217982 0.8642185228463716 H
atom_frac 0.8279852753186177 0.2416610991872687 0.6358168336040249 H
atom_frac 0.3004935756201590 0.1636457829521021 0.2567351278538794 H
atom_frac 0.1365130005921173 0.8365881931271770 0.2432710635188257 H
atom_frac 0.6995059733775477 0.8363526162788446 0.7432660893777905 H
atom_frac 0.8634823005392605 0.1634140071410073 0.7567270132595425 H
atom_frac 0.8220039861872620 0.1801015352793272 0.3469175716811463 C
atom_frac 0.6412504070735778 0.8199837602419821 0.1531795709819548 C
atom_frac 0.1779999340463049 0.8199014978510061 0.6530852668575164 C
atom_frac 0.3587471081165603 0.1800146726458607 0.8468200614726767 C
atom_frac 0.9190443402156419 0.2919401528362826 0.2913475674756043 C
atom_frac 0.6267327423899403 0.7080442436104589 0.2086213055564130 C
atom_frac 0.0809611873054551 0.7080619980720684 0.7086528868995001 C
atom_frac 0.3732642807351638 0.2919532047984319 0.7913806965729860 C
atom_frac 0.8283561929938797 0.3984771914688990 0.3216832979885423 C
atom_frac 0.4299911571410605 0.6014076147994913 0.1779802154916155 C
atom_frac 0.1716422735538146 0.6015231424199214 0.6783147644242432 C
atom_frac 0.5700125086305262 0.3985908190530694 0.8220194173326120 C
atom_frac 0.6448843510793266 0.3869182128251793 0.4072496623390122 C
atom_frac 0.2581236488101907 0.6130177970357024 0.0923687663485993 C
atom_frac 0.3551166249547251 0.6130830379072376 0.5927491998298747 C
atom_frac 0.7418804844470587 0.3869815703281175 0.9076308737816133 C
atom_frac 0.5588320942946865 0.2733170712892488 0.4602833789904465 C
atom_frac 0.2851708237994045 0.7266658213109947 0.0395435285672079 C
atom_frac 0.4411652488373862 0.7266851123112731 0.5397154902380448 C
atom_frac 0.7148210001018069 0.2733335271341559 0.9604569031507492 C
atom_frac 0.2278532180093009 0.2018742894814664 0.1836701125806924 C
atom_frac 0.0257321249536704 0.7982436485850571 0.3163457730148166 C
atom_frac 0.7721483811822197 0.7981241100710578 0.8163311047741784 C
atom_frac 0.9742708930810763 0.2017575854796974 0.6836538816041866 C
atom_frac 0.0456468530801786 0.0947063270075787 0.1222259903279621 C
atom_frac 0.9509567423501866 0.9053221014805573 0.3778218421966883 C
atom_frac 0.9543531634031839 0.9052930057346275 0.8777752342097002 C
atom_frac 0.0490428230337656 0.0946763317288557 0.6221777903811443 C
atom_frac 0.6456604082314925 0.1693508769658152 0.4308898890991272 N
atom_frac 0.4757422971161631 0.8306760988702704 0.0691446746932627 N
atom_frac 0.3543389687081487 0.8306512729778177 0.5691105649063954 N
atom_frac 0.5242515769788696 0.1693232498964505 0.9308557571478883 N
atom_frac 0.1652653373890729 0.0107399717645649 0.0898339993368964 O
atom_frac 0.1547403086264510 0.9894543213547423 0.4100714848738106 O
atom_frac 0.8347342198017532 0.9892584444556222 0.9101664255678512 O
atom_frac 0.8452597078569112 0.0105450113874639 0.5899297396638515 O
atom_frac 0.7841961895072983 0.0922298854581456 0.1127200356797431 O
atom_frac 0.6919990118797373 0.9076854315305029 0.3874320156588665 O
atom_frac 0.2158038269760638 0.9077694472840534 0.8872811888579190 O
atom_frac 0.3080030711836912 0.0923139355117399 0.6125676243481519 O
atom_frac 0.0979174964878595 0.3036444133255287 0.2067922265066641 O
atom_frac 0.7940152656661752 0.6963794622324144 0.2931749176331734 O
atom_frac 0.9020845783824426 0.6963549367274806 0.7932082058272766 O
atom_frac 0.2059826924302399 0.3036198531989882 0.7068270991082100 O
