#=======================================================
# FHI-aims file: geometry_Co4H12C8N20O12.in
# Created using the Atomic Simulation Environment (ASE)
# Tue Dec 21 18:30:52 2021
#=======================================================
lattice_vector 6.4530959770000003 0.1649682610000000 0.0000676470000000 
lattice_vector -0.3493046650000000 8.6556372249999995 0.0000644030000000 
lattice_vector 0.0001072430000000 0.0000816250000000 10.1735410119999994 
atom_frac 0.7474489462966574 0.6991119388275849 0.3102601551113651 Co
atom_frac 0.7525511916785348 0.3008890891809770 0.8102625923743149 Co
atom_frac 0.2525527810405279 0.3008872067175831 0.6897385609638180 Co
atom_frac 0.2474460164804810 0.6991124531376087 0.1897351407738128 Co
atom_frac 0.4895007316151165 0.9015727130114398 0.2643768595009420 H
atom_frac 0.0104954489157549 0.0984244336040305 0.7643821302743065 H
atom_frac 0.5105009957725244 0.0984264325605793 0.7356189077484602 H
atom_frac 0.9895062158647575 0.9015735577706250 0.2356215005182279 H
atom_frac 0.7972456309928687 0.2278810985166899 0.5348296513554587 H
atom_frac 0.7027595389453439 0.7721296496612809 0.0348278669680226 H
atom_frac 0.2027608653791404 0.7721202667402594 0.4651720134997390 H
atom_frac 0.2972499910138778 0.2278705024433876 0.9651757637585379 H
atom_frac 0.7753934091850283 0.3227519441940814 0.3792353867957843 H
atom_frac 0.7246144687458909 0.6772626545525071 0.8792324475526742 H
atom_frac 0.2246114766845153 0.6772482964503511 0.6207652951353140 H
atom_frac 0.2753905420351615 0.3227398943255722 0.1207702002468309 H
atom_frac 0.7530791925970490 0.4587416686969731 0.5435953426234832 C
atom_frac 0.7469287110152720 0.5412677067619568 0.0435909790628699 C
atom_frac 0.2469225972631719 0.5412586310008223 0.4564004246181952 C
atom_frac 0.2530810064457683 0.4587359077647762 0.9564077369308848 C
atom_frac 0.7231975945687169 0.6954308135424087 0.5943443175674546 C
atom_frac 0.7768134661480913 0.3045821657868827 0.0943474679820966 C
atom_frac 0.2768053059797353 0.3045613777438163 0.4056543985439519 C
atom_frac 0.2231915446329609 0.6954203830911966 0.9056551798174086 C
atom_frac 0.7387537115474246 0.6009678060519336 0.4872503404223850 N
atom_frac 0.7612533159065792 0.3990401503891050 0.9872504364278997 N
atom_frac 0.2612480782286966 0.3990324936011190 0.5127503415289284 N
atom_frac 0.2387546035669956 0.6009588771119923 0.0127512284326343 N
atom_frac 0.7472834847844821 0.4720087521882873 0.6789228098247551 N
atom_frac 0.7527229460566572 0.5279992543158940 0.1789175542387724 N
atom_frac 0.2527154587716894 0.5279962229675235 0.3210788550578060 N
atom_frac 0.2472848484885901 0.4719974649426107 0.8210831276952746 N
atom_frac 0.7275841669289137 0.6227414229494388 0.7088909029993857 N
atom_frac 0.7724276177974971 0.3772693821877482 0.2088922085046080 N
atom_frac 0.2724176854038803 0.3772600308741261 0.2911048642345690 N
atom_frac 0.2275772680720465 0.6227308584566842 0.7911084734264835 N
atom_frac 0.7674112728392116 0.3240156854298917 0.4810849254526418 N
atom_frac 0.7325945425675471 0.6759947210570375 0.9810818960985159 N
atom_frac 0.2325923148907378 0.6759892012308908 0.5189147735157464 N
atom_frac 0.2674177711390442 0.3239996014191036 0.0189207517045133 N
atom_frac 0.7065269431251053 0.8554099156965336 0.5827859845076235 N
atom_frac 0.7934703307807850 0.1445989230914364 0.0827929047039362 N
atom_frac 0.2934676063326052 0.1445997645558279 0.4172068338970405 N
atom_frac 0.2065296610415075 0.8553967895538720 0.9172087602302951 N
atom_frac 0.6835764694151365 0.9343362557181010 0.6848749688850904 O
atom_frac 0.8164285842583537 0.0656785965313986 0.1848845489430175 O
atom_frac 0.3164176427009124 0.0656653456359422 0.3151198154574715 O
atom_frac 0.1835701718128178 0.9343229162112933 0.8151210477304148 O
atom_frac 0.7179770856250869 0.9115687471478111 0.4678442557638435 O
atom_frac 0.7820010679393690 0.0884378148699909 0.9678558716870427 O
atom_frac 0.2820137429293652 0.0884294508106791 0.5321534774478779 O
atom_frac 0.2179897604468763 0.9115603829990137 0.0321516909439410 O
atom_frac 0.5131954991675868 0.7960523116725896 0.2328819447341318 O
atom_frac 0.9867959508531782 0.2039410987920718 0.7328834771493150 O
atom_frac 0.4868077137605552 0.2039456502514553 0.7671157883967298 O
atom_frac 0.0131995217909378 0.7960570106266546 0.2671172048578683 O
