#=======================================================
# FHI-aims file: geometry_Co3H26C40N4O10.in
# Created using the Atomic Simulation Environment (ASE)
# Tue Dec 21 18:30:52 2021
#=======================================================
lattice_vector 8.0719844520000006 0.0177912230000000 -0.1464125950000000 
lattice_vector -0.3867251760000000 9.6652885479999995 -3.7862850199999998 
lattice_vector 0.0707795970000000 -0.0215950090000000 10.9874457509999992 
atom_frac 0.4991602358564222 0.9995042343817245 0.4999998525606983 Co
atom_frac 0.7353329113572044 0.7551888950004159 0.5057210316278857 Co
atom_frac 0.2643934981230416 0.2452157592394073 0.4947880897198190 Co
atom_frac 0.7340816519714224 0.8962964950500165 0.3822392289774116 H
atom_frac 0.2654024139069621 0.1041874536952108 0.6183667983725059 H
atom_frac 0.9056183261811981 0.0411876802142359 0.6410217975527601 H
atom_frac 0.0942373447654816 0.9591820598521041 0.3592485722629918 H
atom_frac 0.0991227285763969 0.1344491197274067 0.8355195294643355 H
atom_frac 0.9012723806387229 0.8656860447058536 0.1643968736755357 H
atom_frac 0.1859058618657342 0.9793120242693049 0.9530343670734568 H
atom_frac 0.8145795295204081 0.0208062530016164 0.0468073398011128 H
atom_frac 0.1677097626828329 0.7306610761222956 0.9596612486410194 H
atom_frac 0.8322848569913077 0.2694958706847358 0.0404129561937836 H
atom_frac 0.0598500332177920 0.4882311440154508 0.8580542993533625 H
atom_frac 0.9397852585958048 0.5120561368378632 0.1421737967279455 H
atom_frac 0.8953131313894859 0.3010955029263584 0.6683781360700112 H
atom_frac 0.1041403392759150 0.6991899470542577 0.3318068605391674 H
atom_frac 0.7042224586734706 0.2532214125306140 0.4726553920110988 H
atom_frac 0.2956626860572342 0.7470813046661674 0.5272782796822996 H
atom_frac 0.6368047396622316 0.4432136245389701 0.3957907452055665 H
atom_frac 0.3635339609390797 0.5571480039075994 0.6040254707156054 H
atom_frac 0.4899027929663263 0.1799407756829012 0.9013882959804320 H
atom_frac 0.5108106081855865 0.8190799015412723 0.0982420384636243 H
atom_frac 0.5341842815481216 0.7535421308340345 0.8555643233032485 H
atom_frac 0.4668597379472815 0.2454437251738213 0.1440347539798736 H
atom_frac 0.7713748926373681 0.6213235774934561 0.0048789459352108 H
atom_frac 0.2287721592239151 0.3789316173964750 0.9953021366274373 H
atom_frac 0.3761306669065689 0.5100191839729861 0.2090484281099947 H
atom_frac 0.6241049068005252 0.4901923482845376 0.7911124169504264 H
atom_frac 0.9483781897681142 0.9761294976288964 0.6925703369743773 C
atom_frac 0.0515941838758991 0.0241767070502235 0.3076068832264980 C
atom_frac 0.0549398358539577 0.0267767580955862 0.8030809454685723 C
atom_frac 0.9453648860055139 0.9733875702612450 0.1968479436560101 C
atom_frac 0.1042070898802621 0.9404813883365080 0.8667726820701064 C
atom_frac 0.8961502009511905 0.0596414459631802 0.1331507998316539 C
atom_frac 0.0476835369244384 0.8006246437515400 0.8176217447846386 C
atom_frac 0.9524572281505074 0.1995722509497782 0.1823926328279200 C
atom_frac 0.0875690365160864 0.6990105607361912 0.8722722862083716 C
atom_frac 0.9124508411871304 0.3011783652839597 0.1277805106034862 C
atom_frac 0.0281757984364859 0.5647565239565182 0.8162092138250543 C
atom_frac 0.9716244589940858 0.4354898686731515 0.1839141571499283 C
atom_frac 0.9256771591436105 0.5193738043826385 0.6995418429817805 C
atom_frac 0.0741882489099694 0.4808516496933494 0.3005251235772519 C
atom_frac 0.8632149493313079 0.3825597392348926 0.6329201443439842 C
atom_frac 0.1365146768944214 0.6177042758127770 0.3671601212713540 C
atom_frac 0.7601747021802794 0.3557732607026622 0.5239942247533379 C
atom_frac 0.2397400017712527 0.6445315409340678 0.4759705934079221 C
atom_frac 0.7201543636127354 0.4620786559218217 0.4795537817946496 C
atom_frac 0.2800240371249175 0.5382068469528252 0.5203259882030765 C
atom_frac 0.9423446285111794 0.7580071746995714 0.7054189398256413 C
atom_frac 0.0576314962295044 0.2422378556281757 0.2947026646901847 C
atom_frac 0.8819155917912695 0.6193954153296063 0.6471759946789390 C
atom_frac 0.1180746477966395 0.3808763762176355 0.3528949513110859 C
atom_frac 0.4951324267295476 0.1019371117027532 0.9456170995467872 C
atom_frac 0.5059336764442648 0.8970466639524945 0.0539952070640625 C
atom_frac 0.5139779203009596 0.9630196207095454 0.8644037768357721 C
atom_frac 0.4870094719273297 0.0359456192023444 0.1351828908879682 C
atom_frac 0.5200445713354966 0.8609198971139658 0.9197241482760177 C
atom_frac 0.4811481871723089 0.1380708990240507 0.0798931754685839 C
atom_frac 0.5234120093826320 0.9223371896934582 0.7199449057168864 C
atom_frac 0.4759389783718859 0.0765265578599141 0.2796386794685759 C
atom_frac 0.6527967076697293 0.5673341127438221 0.0019427911525652 C
atom_frac 0.3474192369633257 0.4328029511167699 0.9982130634377667 C
atom_frac 0.5825572011712480 0.5729198714111164 0.1199479540751014 C
atom_frac 0.4176695667803756 0.4272368378155420 0.8802111740354025 C
atom_frac 0.4293313240423161 0.5048134227880042 0.1169586674635498 C
atom_frac 0.5709002203500617 0.4953391340370885 0.8831981832436996 C
atom_frac 0.6706651313500415 0.6534567538916889 0.2468178139116688 C
atom_frac 0.3294624004189046 0.3469514998556421 0.7533174587748804 C
atom_frac 0.8917331840152017 0.8440511026764524 0.6442451845601482 N
atom_frac 0.1080284837413785 0.1562659948508553 0.3560030615597540 N
atom_frac 0.7812980287453256 0.5920508084640730 0.5386497565628262 N
atom_frac 0.2188959544406899 0.4082617134573924 0.4612959599064794 N
atom_frac 0.5010877135962558 0.0205328450248956 0.6765838871449645 O
atom_frac 0.4967566904212646 0.9782344720941722 0.3230537874139615 O
atom_frac 0.5505760931445849 0.7972872467166141 0.6504612805730545 O
atom_frac 0.4483563842876280 0.2016073677095989 0.3487005137331566 O
atom_frac 0.6028070505317942 0.6506290071522828 0.3520149719564075 O
atom_frac 0.3974304437023406 0.3496725122372412 0.6481359525198088 O
atom_frac 0.8045565261091028 0.7196171255572706 0.2473352599895620 O
atom_frac 0.1952495446025396 0.2811100119371090 0.7526325778595719 O
atom_frac 0.7057049036254525 0.9228920631610862 0.4748061194834962 O
atom_frac 0.2933073844491077 0.0774259899841283 0.5257155204429296 O
