#=======================================================
# FHI-aims file: geometry_FeH4C14S2N6.in
# Created using the Atomic Simulation Environment (ASE)
# Tue Dec 21 18:09:01 2021
#=======================================================
lattice_vector 5.4603356510000003 0.1192513870000000 0.8395607950000000 
lattice_vector 1.1402581060000001 5.6881624679999998 1.2545655120000001 
lattice_vector -0.2336116110000000 0.1414851350000000 11.2642134009999992 
atom_frac 0.9771855777227217 0.0192345395656446 0.0090474412991242 Fe
atom_frac 0.4473750485987865 0.7968464593241082 0.3054581123261073 H
atom_frac 0.5593462097328299 0.1947530089514801 0.6921605766449305 H
atom_frac 0.2811719193225387 0.1624540089014133 0.5473724319250408 H
atom_frac 0.7262837737337833 0.8288658785988334 0.4501241135679024 H
atom_frac 0.4722872150811385 0.6663586473817488 0.3901671103123689 C
atom_frac 0.5354864506108472 0.3247616987483822 0.6072382952490899 C
atom_frac 0.3434727579769544 0.4774958903920777 0.4150697164197297 C
atom_frac 0.6644849047974405 0.5135841825429709 0.5822447860898451 C
atom_frac 0.3807879021953370 0.3062294517852138 0.5260456532732293 C
atom_frac 0.6275185117613661 0.6844749285833627 0.4711657380077626 C
atom_frac 0.1782041002945860 0.4611088600437299 0.3325918479548093 C
atom_frac 0.8255763027689156 0.5336176902023909 0.6656159542864800 C
atom_frac 0.0610352241075489 0.2672769166749376 0.3508279429933693 C
atom_frac 0.9423601334583793 0.7279559296625139 0.6467156395421443 C
atom_frac 0.1152390552101465 0.6356050334434826 0.2293024431472190 C
atom_frac 0.8765200173122097 0.3692797387188095 0.7737959343154089 C
atom_frac 0.5973967901716933 0.8086385982508233 0.9222303066411399 C
atom_frac 0.4015223345648522 0.1977220202504242 0.0776967135526405 C
atom_frac 0.3695776317282977 0.7484282086304789 0.8667773366287151 S
atom_frac 0.6559230180160612 0.2406878182253962 0.1207819902906593 S
atom_frac 0.9650212833774392 0.1074471397225381 0.3630281443277498 N
atom_frac 0.0378732542990506 0.8881549129895772 0.6343713780073587 N
atom_frac 0.0561324558422527 0.7811566626895896 0.1431960781322914 N
atom_frac 0.9223505052694211 0.2381796844486459 0.8662654294078609 N
atom_frac 0.7606191429675422 0.8578024002948649 0.9623321482132853 N
atom_frac 0.2192509958677462 0.1618745217541644 0.0483827186097230 N
