#=======================================================
# FHI-aims file: ./geometry.in
# Created using the Atomic Simulation Environment (ASE)
# Mon Feb  7 19:01:12 2022
#=======================================================
lattice_vector 8.1430059799999999 0.2907822500000000 -0.3972914500000000 
lattice_vector -0.3826172000000000 9.5518255700000001 -1.3985833400000001 
lattice_vector 0.4840709300000000 0.8032280900000000 10.5989045999999991 
atom_frac 0.8794559500000000 0.0273334300000000 0.7889579000000000 Cu
    initial_moment         1.000000
atom_frac 0.1207543200000000 0.9723963600000000 0.2112671600000000 Cu
    initial_moment        -1.000000
atom_frac 0.4993322200000000 1.0003054899999997 -0.0006186400000000 Cu
    initial_moment        -1.000000
atom_frac 0.8538449800000000 0.8418196600000000 0.0179737800000000 P
atom_frac 0.1453561700000000 0.1587490500000000 0.9823856100000001 P
atom_frac 0.6769096800000000 0.6684469500000000 0.1810401300000000 H
atom_frac 0.3230308900000000 0.3316136400000000 0.8192894399999999 H
atom_frac 0.5949488000000001 0.4178321199999999 0.1597149400000000 H
atom_frac 0.4046922800000000 0.5823351500000000 0.8401705300000001 H
atom_frac 0.8191857700000000 0.3706338300000000 0.7966749100000000 H
atom_frac 0.1790425000000000 0.6304059400000001 0.2026669200000000 H
atom_frac 0.9113649900000002 0.6203863699999999 0.8194048700000000 H
atom_frac 0.0869985400000000 0.3806463200000000 0.1803163500000000 H
atom_frac 0.6637540500000000 0.7614446499999998 0.7955816700000000 H
atom_frac 0.3350498100000000 0.2389657200000000 0.2049762800000000 H
atom_frac 0.5074967900000000 0.6203368400000000 0.6306124400000001 H
atom_frac 0.4932853400000002 0.3791514400000000 0.3695269800000000 H
atom_frac 0.4889451600000000 0.7015147199999999 0.4106330699999999 H
atom_frac 0.5126984600000000 0.2974439900000000 0.5893177800000000 H
atom_frac 0.9113353400000000 0.2912985699999999 0.3086161100000000 H
atom_frac 0.0894196400000000 0.7084148900000000 0.6917185000000000 H
atom_frac 0.0688448600000000 0.3996157900000000 0.4948552600000000 H
atom_frac 0.9315582200000000 0.6001737400000000 0.5056405000000000 H
atom_frac 0.0559269200000000 0.2868053800000000 0.7028878000000000 H
atom_frac 0.9449303000000000 0.7125305100000000 0.2974479700000000 H
atom_frac 0.7220827600000000 1.0959960099999999 0.2225577200000000 H
atom_frac 0.2787243700000001 -0.0964728000000000 0.7775527200000000 H
atom_frac 0.5661689900000000 0.8871606699999999 0.2602053300000000 H
atom_frac 0.4354863900000001 0.1120491700000000 0.7396550200000001 H
atom_frac 0.7985758800000000 0.6600429099999999 0.0006977100000000 C
atom_frac 0.2005580300000000 0.3405421100000000 0.9993168100000001 C
atom_frac 0.7121049500000000 0.6021294799999999 0.0975204600000000 C
atom_frac 0.2873513300000000 0.3982043000000000 0.9025119600000001 C
atom_frac 0.6656501700000000 0.4637566600000000 0.0860222200000000 C
atom_frac 0.3336832600000000 0.5365936400000000 0.9137975199999999 C
atom_frac 0.7026370800000000 0.3809257800000000 0.9765294100000000 C
atom_frac 0.2961905300000000 0.6197147100000000 0.0230345500000000 C
atom_frac 0.6422656300000000 0.2354595800000000 0.9581536400000000 C
atom_frac 0.3561681000000000 0.7652850900000001 0.0410770300000000 C
atom_frac 0.7912338700000000 0.4376475799999999 0.8809958200000000 C
atom_frac 0.2072764600000000 0.5632104400000000 0.1185293800000000 C
atom_frac 0.8407622300000001 0.5753958100000000 0.8936610699999999 C
atom_frac 0.1578207000000000 0.4254513200000000 0.1060772900000000 C
atom_frac 0.6584005100000000 0.7921511699999999 0.6987625700000000 C
atom_frac 0.3415415300000000 0.2077969900000000 0.3015878300000000 C
atom_frac 0.5700767400000000 0.7142624700000000 0.6051886500000000 C
atom_frac 0.4307713800000000 0.2851926600000000 0.3949318300000000 C
atom_frac 0.5594065800000001 0.7587482800000001 0.4849337000000000 C
atom_frac 0.4419268400000000 0.2404356700000000 0.5150593300000000 C
atom_frac 0.6398140900000000 0.8818778600000001 0.4574449300000001 C
atom_frac 0.3614854100000000 0.1173197400000000 0.5425542800000002 C
atom_frac 0.7281983100000000 0.9516468500000002 0.5569596999999999 C
atom_frac 0.2727377499999999 0.0477748100000000 0.4431515600000001 C
atom_frac 0.8159729800000000 1.0747384900000003 0.5354452600000000 C
atom_frac 0.1851433600000000 -0.0754633500000000 0.4646377400000000 C
atom_frac 0.8146515800000000 0.1278018500000000 0.4152236800000000 C
atom_frac 0.1862727900000000 0.8717018400000000 0.5849358800000001 C
atom_frac 0.9075020200000000 0.2484347300000000 0.4010916900000000 C
atom_frac 0.0932518600000000 0.7511945299999999 0.5992056900000000 C
atom_frac 0.9929246799999999 0.3077191000000000 0.5033383800000000 C
atom_frac 0.0076646600000000 0.6919320799999999 0.4970488900000000 C
atom_frac 0.9882306000000000 0.2464258800000000 0.6191576000000000 C
atom_frac 0.0127339100000000 0.7529121200000000 0.3811020900000000 C
atom_frac 0.7227301000000000 1.0568231199999998 0.3166892700000000 C
atom_frac 0.2782645600000000 -0.0573553500000000 0.6834087300000000 C
atom_frac 0.6377300600000000 0.9387341899999999 0.3373077400000000 C
atom_frac 0.3636532000000000 0.0605069500000000 0.6626869600000000 C
atom_frac 0.7367152400000000 0.9073614300000000 0.6745642900000000 N
atom_frac 0.2631278700000000 0.0926256700000000 0.3258387900000000 N
atom_frac 0.9017345600000000 0.1328535199999999 0.6339894300000000 N
atom_frac 0.0998187000000000 0.8661367700000000 0.3660062900000000 N
atom_frac 0.9281442600000001 0.8761059299999999 0.8904349200000000 O
atom_frac 0.0734862800000000 0.1241802900000000 0.1105606000000000 O
atom_frac 0.9792789100000000 0.8413787500000001 0.1265733600000000 O
atom_frac 0.0178534300000000 0.1603784200000000 0.8751627400000002 O
atom_frac 0.7024361900000000 0.9278111900000000 0.0575075600000000 O
atom_frac 0.2961399300000000 0.0727802900000000 0.9412222300000002 O
atom_frac 0.5740620200000001 0.1861272300000000 0.0537425700000000 O
atom_frac 0.4245315300000000 0.8143699800000000 0.9454748100000000 O
atom_frac 0.6557840500000000 0.1695079600000000 0.8523191600000000 O
atom_frac 0.3421880600000000 0.8316721999999998 0.1467366700000000 O
