#=======================================================
# FHI-aims file: ./geometry.in
# Created using the Atomic Simulation Environment (ASE)
# Mon Feb  7 19:01:15 2022
#=======================================================
lattice_vector 6.9193358299999996 0.7972374600000000 -0.0024444100000000 
lattice_vector -3.1100919700000000 8.8877092700000002 -0.0050746600000000 
lattice_vector 0.0032814200000000 0.0083060700000000 12.8460677800000003 
atom_frac 0.8893418200000002 0.6251394500000000 0.9513301100000000 Sc
atom_frac 0.1101908900000000 0.8751483700000000 0.4513301500000000 Sc
atom_frac 0.1101815300000000 0.3751551500000000 0.0485583000000000 Sc
atom_frac 0.8893533600000000 0.1251332900000000 0.5485586099999999 Sc
atom_frac 0.0673353900000000 0.8180286900000000 0.7258889700000000 H
atom_frac 0.9321961100000000 0.6822584100000001 0.2258935200000000 H
atom_frac 0.9321967200000001 0.1822615000000000 0.2739972000000000 H
atom_frac 0.0673370300000000 0.3180298300000001 0.7739947900000000 H
atom_frac 0.5851113000000000 0.4031572000000000 0.5916641000000000 H
atom_frac 0.4144223900000000 0.0971267600000000 0.0916615800000000 H
atom_frac 0.4144413900000001 0.5971202500000001 0.4082229900000000 H
atom_frac 0.5850953300000001 0.9031705300000001 0.9082267700000000 H
atom_frac 0.2304289100000001 0.5652405500000001 0.8822431499999999 H
atom_frac 0.7691056200000002 0.9350467400000002 0.3822431000000000 H
atom_frac 0.7690998700000002 0.4350534000000001 0.1176492200000000 H
atom_frac 0.2304379500000000 0.0652347800000000 0.6176456600000000 H
atom_frac 0.6746037300000001 0.8070020900000001 0.0483926100000000 H
atom_frac 0.3249300200000000 0.6932900500000000 0.5483921899999999 H
atom_frac 0.3249150500000000 0.1932946500000000 0.9514913599999999 H
atom_frac 0.6746154200000000 0.3069908000000001 0.4514953700000000 H
atom_frac 0.5318407000000001 0.6473494900000000 0.0367259400000000 H
atom_frac 0.4676961300000001 0.8529418800000002 0.5367271400000000 H
atom_frac 0.4676790400000001 0.3529492400000000 0.9631591899999999 H
atom_frac 0.5318467000000001 0.1473395100000000 0.4631609300000000 H
atom_frac 0.9585702100000001 0.7264366800000001 0.6942694000000000 C
atom_frac 0.0409626900000000 0.7738493000000000 0.1942724700000000 C
atom_frac 0.0409663600000000 0.2738500600000001 0.3056177800000000 C
atom_frac 0.9585673800000001 0.2264405900000000 0.8056156300000000 C
atom_frac 0.8110626100000000 0.5964290400000000 0.5545256499999999 C
atom_frac 0.1884707800000001 0.9038554500000001 0.0545266400000000 C
atom_frac 0.1884850300000000 0.4038508700000000 0.4453615200000000 C
atom_frac 0.8110492000000001 0.0964398000000000 0.9453615000000000 C
atom_frac 0.6904549500000000 0.4987899900000000 0.6195176900000000 C
atom_frac 0.3090798600000000 0.0014941700000000 0.1195171500000000 C
atom_frac 0.3090933200000001 0.5014897600000000 0.3803696000000000 C
atom_frac 0.6904414300000001 0.9988008100000001 0.8803707399999999 C
atom_frac 0.7173138500000000 0.5230960700000001 0.7252018700000000 C
atom_frac 0.2822234600000000 0.9771880100000001 0.2252017300000000 C
atom_frac 0.2822276100000000 0.4771880800000000 0.2746853100000000 C
atom_frac 0.7173061400000000 0.0231025700000000 0.7746862899999999 C
atom_frac 0.5969894900000001 0.4224748300000000 0.8030396500000001 C
atom_frac 0.4025502300000001 0.0778074200000000 0.3030387500000000 C
atom_frac 0.4025484700000001 0.5778109400000001 0.1968472300000000 C
atom_frac 0.5969843200000000 0.9224799800000000 0.6968495399999999 C
atom_frac 0.8212562600000000 0.5753508300000000 0.4388115400000000 C
atom_frac 0.1782692300000000 0.9249392499999999 0.9388129800000000 C
atom_frac 0.1782849200000000 0.4249322300000001 0.5610752000000000 C
atom_frac 0.8212418100000001 0.0753606800000000 0.0610760200000000 C
atom_frac 0.8535444500000001 0.6337170800000000 0.7629950599999999 N
atom_frac 0.1459940800000000 0.8665659400000001 0.2629964200000000 N
atom_frac 0.1459915500000000 0.3665705100000001 0.2368922300000000 N
atom_frac 0.8535409100000001 0.1337213400000000 0.7368917399999999 N
atom_frac 0.9399334400000000 0.7129737100000000 0.5913000899999999 N
atom_frac 0.0595954800000000 0.7873136600000000 0.0913027500000000 N
atom_frac 0.0596078400000000 0.2873098200000000 0.4085868999999999 N
atom_frac 0.9399266100000000 0.2129806200000000 0.9085853800000000 N
atom_frac 0.6421256900000001 0.4578472000000000 0.8993898200000000 O
atom_frac 0.3573961200000000 0.0424435400000000 0.3993889500000000 O
atom_frac 0.3573950300000000 0.5424489300000001 0.1004972900000000 O
atom_frac 0.6421437300000000 0.9578396400000001 0.6004993199999999 O
atom_frac 0.4705898600000001 0.3184631200000000 0.7731727100000000 O
atom_frac 0.5289471200000001 0.1818209400000000 0.2731717100000000 O
atom_frac 0.5289512600000001 0.6818206800000000 0.2267140200000000 O
atom_frac 0.4705722400000000 0.8184756800000001 0.7267166499999999 O
atom_frac 0.9422731300000000 0.6769862800000001 0.3926620400000000 O
atom_frac 0.0572689500000000 0.8232974100000000 0.8926621300000001 O
atom_frac 0.0572797800000000 0.3232913300000000 0.6072257300000000 O
atom_frac 0.9422501900000001 0.1769989300000000 0.1072263000000000 O
atom_frac 0.7252673000000001 0.4634968900000000 0.3966996900000000 O
atom_frac 0.2742689300000000 0.0367890600000000 0.8966994099999999 O
atom_frac 0.2742824400000001 0.5367821500000001 0.6031881600000000 O
atom_frac 0.7252475200000001 0.9635081100000000 0.1031886200000000 O
atom_frac 0.1174956500000000 0.5235789800000000 0.9253422200000001 O
atom_frac 0.8820372900000001 0.9767075600000001 0.4253428700000000 O
atom_frac 0.8820266300000001 0.4767170400000000 0.0745463700000000 O
atom_frac 0.1175057500000000 0.0235730800000000 0.5745465600000000 O
atom_frac 0.6516584500000000 0.7146938400000000 1.0052180500000001 O
atom_frac 0.3478804600000001 0.7855993000000001 0.5052171600000001 O
atom_frac 0.3478601700000000 0.2856037500000000 -0.0053342900000000 O
atom_frac 0.6516637700000000 0.2146810800000001 0.4946702200000000 O
