#=======================================================
# FHI-aims file: ./geometry.in
# Created using the Atomic Simulation Environment (ASE)
# Mon Feb  7 19:01:12 2022
#=======================================================
lattice_vector 6.7394211899999998 0.0001608800000000 -0.0054045300000000 
lattice_vector 0.0000572800000000 9.8232852299999998 -0.0000023900000000 
lattice_vector -0.0004264900000000 -0.0000779700000000 15.2870584800000007 
atom_frac 0.7506620599999999 0.3927788000000000 0.2842495600000000 Cu
    initial_moment         1.000000
atom_frac 0.2505425500000000 0.1072412600000000 0.7845363200000000 Cu
    initial_moment        -1.000000
atom_frac 0.7494641799999999 0.8927740800000000 0.2157571500000000 Cu
    initial_moment        -1.000000
atom_frac 0.2493279800000000 0.6072431600000000 0.7154626500000001 Cu
    initial_moment         1.000000
atom_frac 0.4355489699999999 0.2957791100000001 0.1733790000000000 H
atom_frac 0.9353967700000000 0.2031534600000000 0.6734218400000000 H
atom_frac 0.0653432300000000 0.2957647100000000 0.1733900400000000 H
atom_frac 0.4347821800000000 0.7957299500000001 0.3266141799999999 H
atom_frac 0.5644730499999999 0.7031919600000002 0.8265720499999999 H
atom_frac 0.0645772200000000 0.7957711000000001 0.3266313100000000 H
atom_frac 0.9346244599999999 0.7032095100000000 0.8265559700000000 H
atom_frac 0.5652494000000000 0.2032018800000000 0.6734446799999999 H
atom_frac 0.4396088300000000 0.5120156300000002 0.4077540900000000 H
atom_frac 0.9393626000000000 -0.0119569100000000 0.9082587899999999 H
atom_frac 0.0622277200000000 0.5119396300000000 0.4077962800000000 H
atom_frac 0.4379023800000000 1.0119133800000000 0.0922130400000000 H
atom_frac 0.5605025999999999 0.4880498500000001 0.5917474200000001 H
atom_frac 0.0605133500000000 1.0119933699999999 0.0922514400000000 H
atom_frac 0.9376029600000000 0.4881054399999999 0.5917015200000000 H
atom_frac 0.5622646600000000 -0.0118935000000000 0.9083001999999999 H
atom_frac 0.7505614399999999 0.1974391400000000 0.4134746600000000 C
atom_frac 0.2504455600000000 0.3030959600000001 0.9131504199999999 C
atom_frac 0.7495466399999999 0.6974359600000001 0.0865268600000000 C
atom_frac 0.2494405800000000 0.8030943600000002 0.5868417700000000 C
atom_frac 0.7501374200000001 0.1164056700000000 0.3305568400000001 C
atom_frac 0.2499955200000000 0.3839912300000001 0.8303322100000000 C
atom_frac 0.7499950599999999 0.6163998600000000 0.1694435900000000 C
atom_frac 0.2498665700000000 0.8839933300000004 0.6696605799999999 C
atom_frac 0.7496141900000000 0.9195171800000002 0.4150083099999999 C
atom_frac 0.2495758500000000 0.5808420000000001 0.9148266300000000 C
atom_frac 0.7504148600000000 0.4195124500000000 0.0849901200000000 C
atom_frac 0.2503993600000000 0.0808424400000000 0.5851668400000000 C
atom_frac 0.7499877599999999 0.9990612800000002 0.4904844600000001 C
atom_frac 0.2499781000000000 0.5012610199999999 0.9903034500000001 C
atom_frac 0.7500135299999999 0.4990577700000001 0.0095149200000000 C
atom_frac 0.2500195100000000 0.0012604200000000 0.5096897700000000 C
atom_frac 0.7488849100000000 0.7762102700000001 0.4243755800000000 C
atom_frac 0.2489048900000000 0.7241606400000002 0.9243199400000000 C
atom_frac 0.7510693099999999 0.2762052900000000 0.0756215400000000 C
atom_frac 0.2511664300000000 0.2241608000000000 0.5756737600000001 C
atom_frac 0.7497906199999999 0.9302226000000002 0.5722032700000000 C
atom_frac 0.2498696000000000 0.5699580400000002 0.0720762100000000 C
atom_frac 0.7501192699999999 0.4302220600000001 0.9277943499999999 C
atom_frac 0.2502199800000000 0.0699565000000000 0.4279172200000000 C
atom_frac 0.3538146600000000 0.3459880000000001 0.2259951800000000 C
atom_frac 0.8536974700000000 0.1533230800000000 0.7261851900000000 C
atom_frac 0.1472709100000000 0.3459889600000001 0.2259991000000000 C
atom_frac 0.3528541900000000 0.8459623900000000 0.2740070500000000 C
atom_frac 0.6461743099999999 0.6533482400000000 0.7738128300000000 C
atom_frac 0.1463105900000000 0.8459720800000003 0.2740128700000001 C
atom_frac 0.8527234299999999 0.6533479900000001 0.7738063300000000 C
atom_frac 0.6471484199999999 0.1533351300000000 0.7261937900000000 C
atom_frac 0.3543976200000000 0.4641111500000001 0.3550280500000000 C
atom_frac 0.8542809499999999 0.0359168600000000 0.8554865900000002 C
atom_frac 0.1471708900000000 0.4641021800000001 0.3550293000000000 C
atom_frac 0.3529530699999999 0.9640783700000001 0.1449775600000000 C
atom_frac 0.6455915100000000 0.5359271500000001 0.6445153000000001 C
atom_frac 0.1457258300000000 0.9640932000000002 0.1449790900000000 C
atom_frac 0.8528144100000000 0.5359331500000001 0.6445130499999999 C
atom_frac 0.6470580599999999 0.0359300100000000 0.8554893700000000 C
atom_frac 0.7504931500000001 0.1364403300000000 0.4912063400000000 N
atom_frac 0.2504353799999999 0.3638798900000000 0.9909020300000000 N
atom_frac 0.7495555600000000 0.6364372200000001 0.0087944100000000 N
atom_frac 0.2495106500000000 0.8638790600000001 0.5090901500000000 N
atom_frac 0.7497405299999998 0.9795190000000001 0.3344503300000000 N
atom_frac 0.2496253500000000 0.5210159700000001 0.8342401699999999 N
atom_frac 0.7503648000000001 0.4795135600000001 0.1655486800000000 N
atom_frac 0.2502697100000000 0.0210176800000000 0.6657530699999999 N
atom_frac 0.7496280700000000 0.8718285400000002 0.6385792800000000 N
atom_frac 0.2497779900000000 0.6281273000000002 0.1385331900000000 N
atom_frac 0.7502183299999999 0.3718327900000001 0.8614161400000000 N
atom_frac 0.2503759300000000 0.1281233600000000 0.3614596500000000 N
atom_frac 0.7481799500000000 0.6591029800000001 0.4375975800000000 N
atom_frac 0.2482838400000000 0.8412275400000002 0.9376849500000000 N
atom_frac 0.7516904599999999 0.1590974000000000 0.0624005800000000 N
atom_frac 0.2519031199999999 0.3412272400000000 0.5623093100000000 N
atom_frac 0.4549306900000000 0.4078633800000001 0.2890733400000001 N
atom_frac 0.9547850599999999 0.0917417900000000 0.7893831600000000 N
atom_frac 0.0463812900000000 0.4078607100000001 0.2890793100000000 N
atom_frac 0.4537412600000000 0.9078260300000001 0.2109254300000000 N
atom_frac 0.5450886100000000 0.5917716500000001 0.7106139200000000 N
atom_frac 0.0451958000000000 0.9078447900000002 0.2109327000000000 N
atom_frac 0.9535793299999998 0.5917709800000001 0.7106054000000001 N
atom_frac 0.5462913299999999 0.0917604200000000 0.7893935100000000 N
atom_frac 0.7510478699999998 0.3267688600000000 0.4068123600000000 O
atom_frac 0.2508974000000000 0.1735679700000000 0.9065899199999999 O
atom_frac 0.7491028100000000 0.8267649100000002 0.0931913200000000 O
atom_frac 0.2489427600000000 0.6735674900000002 0.5934038000000000 O
atom_frac 0.7502088900000000 0.1767456500000000 0.2580701600000000 O
atom_frac 0.2500176300000000 0.3237257100000001 0.7578182900000000 O
atom_frac 0.7499717900000000 0.6767387900000003 0.2419310800000000 O
atom_frac 0.2497907100000000 0.8237284900000001 0.7421741200000000 O
