#=======================================================
# FHI-aims file: ./geometry.in
# Created using the Atomic Simulation Environment (ASE)
# Mon Feb  7 19:01:08 2022
#=======================================================
lattice_vector 7.1139874499999998 -0.1807353400000000 0.9949570000000000 
lattice_vector -0.1606921200000000 7.1146189099999999 0.9949716900000000 
lattice_vector -0.3252401700000000 -0.3246561600000000 10.0552719899999996 
atom_frac 0.5971980300000000 0.4027030400000000 0.2499853500000000 Co
    initial_moment         1.000000
atom_frac 0.4028029200000000 0.5972954000000000 0.7500144199999997 Co
    initial_moment         1.000000
atom_frac 0.2833050000000000 0.5730027600000003 0.1660339800000000 H
atom_frac 0.4269539100000000 0.7166072500000000 0.3339596799999999 H
atom_frac 0.7166947600000000 0.4269977800000000 0.8339669300000000 H
atom_frac 0.5730459200000000 0.2833945600000000 0.6660392399999999 H
atom_frac 0.9432758100000000 0.5201532900000000 0.2107419200000000 H
atom_frac 0.4798069799999998 0.0566222600000000 0.2892537700000000 H
atom_frac 0.0567242900000000 0.4798488800000000 0.7892606799999998 H
atom_frac 0.5201928099999997 0.9433795699999999 0.7107417700000001 H
atom_frac 1.0320331400000000 0.1303344300000000 0.5551625700000000 H
atom_frac 0.8696728499999998 -0.0321502600000000 0.9448434399999996 H
atom_frac -0.0320312000000000 0.8696672300000001 0.4448393800000000 H
atom_frac 0.1303269400000000 1.0321464199999999 0.0551535500000000 H
atom_frac 0.3724020600000000 0.2047832300000000 0.5002505499999997 H
atom_frac 0.7951954500000000 0.6274968399999999 0.9997428000000000 H
atom_frac 0.6275995100000000 0.7952171800000002 0.4997499100000000 H
atom_frac 0.2048035100000000 0.3725004000000001 0.0002567900000000 H
atom_frac 0.2232053100000000 0.4764042700000000 0.2524092999999998 C
atom_frac 0.5235488700000001 0.7766998700000000 0.2475787500000000 C
atom_frac 0.7767952299999997 0.5235961200000000 0.7475916899999999 C
atom_frac 0.4764510600000000 0.2233004000000000 0.7524197500000001 C
atom_frac 0.0331281300000000 0.4455172200000000 0.2774627200000000 C
atom_frac 0.5544441200000000 0.9667712099999997 0.2225288700000000 C
atom_frac 0.9668723899999998 0.5544838100000000 0.7225389699999999 C
atom_frac 0.4455559800000000 0.0332289500000000 0.7774680699999997 C
atom_frac 0.9557836099999999 0.3148105700000002 0.3845671600000000 C
atom_frac 0.6851639400000000 0.0441113000000000 0.1154282600000000 C
atom_frac 0.0442171500000000 0.6851900899999999 0.6154346899999997 C
atom_frac 0.3148369100000000 0.9558877800000000 0.8845689499999998 C
atom_frac 0.0815582000000000 0.2297611700000000 0.4676635000000000 C
atom_frac 0.7702273299999999 0.9183338700000000 0.0323365900000000 C
atom_frac 0.9184430799999997 0.7702398000000000 0.5323378600000001 C
atom_frac 0.2297728700000000 0.0816641900000000 0.9676610699999996 C
atom_frac 0.2714098599999999 0.2703205100000000 0.4369661399999999 C
atom_frac 0.7296521599999999 0.7284886600000000 0.0630269400000000 C
atom_frac 0.7285914500000000 0.7296799400000000 0.5630345500000000 C
atom_frac 0.2703475300000001 0.2715096000000000 0.9369721300000000 C
atom_frac 0.7151460500000000 0.2599853500000000 0.4138641600000000 S
atom_frac 0.7399949900000001 0.2847425500000000 0.0861338100000000 S
atom_frac 0.2848548700000000 0.7400137800000000 0.5861362599999999 S
atom_frac 0.2600069100000000 0.7152569000000000 0.9138650699999996 S
atom_frac 0.3462407000000000 0.3856641900000000 0.3276055900000000 N
atom_frac 0.6142847000000000 0.6536635200000001 0.1723785700000000 N
atom_frac 0.6537606000000000 0.6143353800000000 0.6723946599999998 N
atom_frac 0.3857154500000000 0.3463357500000000 0.8276210599999998 N
