#=======================================================
# FHI-aims file: ./geometry.in
# Created using the Atomic Simulation Environment (ASE)
# Mon Feb  7 19:01:13 2022
#=======================================================
lattice_vector 7.8032195499999997 0.1064271200000000 0.0002544100000000 
lattice_vector -1.1039712600000000 8.0431772800000001 -0.0000443500000000 
lattice_vector -0.0004157600000000 0.0000017900000000 12.6919738800000008 
atom_frac 1.0000021600000000 1.0000092599999999 0.4999985300000000 Fe
    initial_moment         3.000000
atom_frac 0.5000020299999999 0.5000094200000000 0.9999983300000000 Fe
    initial_moment        -3.000000
atom_frac 0.3435502999999999 0.2677458200000001 0.4112858000000000 H
atom_frac 0.1564534500000000 0.2322732300000000 0.9112857900000001 H
atom_frac 0.6564530099999999 0.7322733700000001 0.5887104200000001 H
atom_frac 0.8435508500000000 0.7677451700000001 0.0887105600000000 H
atom_frac 0.3860803000000000 0.5710998900000001 0.5071292100000000 H
atom_frac 0.1139236900000000 0.9289188100000001 0.0071289500000000 H
atom_frac 0.6139234899999999 0.4289189800000001 0.4928674700000000 H
atom_frac 0.8860802999999999 0.0710995800000000 0.9928675800000001 H
atom_frac 0.1293386400000000 0.5678758100000000 0.6503097799999999 H
atom_frac 0.3706654500000001 0.9321422900000002 0.1503094100000000 H
atom_frac 0.8706659600000000 0.4321425800000000 0.3496873800000000 H
atom_frac 0.6293379499999999 0.0678760700000000 0.8496872300000001 H
atom_frac 0.5512017499999999 0.2417291700000000 0.6446622500000001 H
atom_frac 0.9488022099999999 0.2582886400000001 0.1446620300000000 H
atom_frac 0.4488024300000000 0.7582889200000001 0.3553343300000000 H
atom_frac 0.0512020100000000 0.7417290000000002 0.8553343100000000 H
atom_frac 0.3981762500000000 0.3567358900000000 0.7944953900000000 H
atom_frac 0.1018276700000000 0.1432819200000000 0.2944952100000001 H
atom_frac 0.6018277299999999 0.6432822699999999 0.2055013600000000 H
atom_frac 0.8981764299999999 0.8567362300000000 0.7055014600000001 H
atom_frac 0.8565181799999999 0.4979821600000000 0.9526685200000001 H
atom_frac 0.6434858200000000 0.0020361200000000 0.4526686300000000 H
atom_frac 0.1434858000000000 0.5020368500000000 0.0473279100000000 H
atom_frac 0.3565182000000000 0.9979818200000000 0.5473277800000002 H
atom_frac 0.0317282500000000 0.3996129900000001 0.8054923000000002 H
atom_frac 0.4682756800000000 0.1004052500000000 0.3054923000000000 H
atom_frac 0.9682758299999998 0.6004055200000001 0.1945042100000000 H
atom_frac 0.5317283599999999 0.8996128500000001 0.6945039600000001 H
atom_frac 0.2659243700000000 0.3114716300000000 0.4746434300000000 C
atom_frac 0.2340795300000000 0.1885472200000000 0.9746433400000001 C
atom_frac 0.7340793700000000 0.6885472500000002 0.5253531100000001 C
atom_frac 0.7659246799999999 0.8114712800000001 0.0253531000000000 C
atom_frac 0.2869130500000000 0.4687718000000001 0.5248675100000000 C
atom_frac 0.2130909400000000 0.0312468100000000 0.0248673000000000 C
atom_frac 0.7130910200000000 0.5312468699999999 0.4751292700000000 C
atom_frac 0.7869129800000000 0.9687716400000000 0.9751292100000002 C
atom_frac 0.1563574300000000 0.4669016100000001 0.5990121000000000 C
atom_frac 0.3436466000000000 0.0331167300000000 0.0990118500000000 C
atom_frac 0.8436468699999999 0.5331169300000000 0.4009848500000000 C
atom_frac 0.6563571999999999 0.9669016700000002 0.9009847100000002 C
atom_frac 0.0598347800000000 0.3081554700000000 0.5915317600000001 C
atom_frac 0.4401691600000000 0.1918629900000000 0.0915316500000000 C
atom_frac 0.9401694099999999 0.6918631500000001 0.4084650800000000 C
atom_frac 0.5598348999999999 0.8081553900000001 0.9084649200000000 C
atom_frac 0.9021499499999999 0.2321337600000000 0.6315998200000001 C
atom_frac 0.5978541200000000 0.2678845900000000 0.1315996500000000 C
atom_frac 0.0978543200000000 0.7678847200000001 0.3683970100000001 C
atom_frac 0.4021500300000000 0.7321338499999999 0.8683968300000001 C
atom_frac 0.8051756799999999 0.3072681100000000 0.7136241100000000 C
atom_frac 0.6948282599999999 0.1927499200000000 0.2136240100000000 C
atom_frac 0.1948283000000000 0.6927502400000001 0.2863725500000000 C
atom_frac 0.3051759700000000 0.8072681999999999 0.7863724700000001 C
atom_frac 0.6248930400000000 0.2973666400000001 0.7116505399999999 C
atom_frac 0.8751108899999999 0.2026513700000000 0.2116504000000000 C
atom_frac 0.3751109599999999 0.7026516100000001 0.2883460600000001 C
atom_frac 0.1248933200000000 0.7973666500000002 0.7883460400000000 C
atom_frac 0.5387292199999999 0.3604939800000000 0.7945916500000001 C
atom_frac 0.9612747199999999 0.1395240500000000 0.2945915700000001 C
atom_frac 0.4612747799999999 0.6395243500000001 0.2054049500000000 C
atom_frac 0.0387293800000000 0.8604941900000000 0.7054050400000001 C
atom_frac 0.7955577399999999 0.4415231500000000 0.8817633799999999 C
atom_frac 0.7044462499999999 0.0584951000000000 0.3817634400000000 C
atom_frac 0.2044463300000000 0.5584956000000000 0.1182331100000000 C
atom_frac 0.2955577800000000 0.9415230800000001 0.6182330400000001 C
atom_frac 0.8906639199999999 0.3856786100000000 0.8003458200000000 C
atom_frac 0.6093400199999999 0.1143395800000000 0.3003458100000000 C
atom_frac 0.1093401600000000 0.6143399400000000 0.1996507500000000 C
atom_frac 0.3906640399999999 0.8856785699999999 0.6996506100000001 C
atom_frac 0.1297553900000000 0.2157351100000000 0.5146872000000000 N
atom_frac 0.3702483400000000 0.2842835700000000 0.0146872300000000 N
atom_frac 0.8702484500000000 0.7842836900000000 0.4853094200000000 N
atom_frac 0.6297557599999999 0.7157346999999999 0.9853092700000001 N
atom_frac 0.6213509900000000 0.4278493600000000 0.8807608300000002 N
atom_frac 0.8786529699999999 0.0721690300000000 0.3807608600000000 N
atom_frac 0.3786531299999999 0.5721692200000000 0.1192356200000000 N
atom_frac 0.1213509500000000 0.9278494600000000 0.6192356400000000 N
atom_frac 0.8414639999999999 0.0893854600000000 0.5938656600000001 O
atom_frac 0.6585402500000000 0.4106328900000000 0.0938657000000000 O
atom_frac 0.1585405800000000 0.9106328800000000 0.4061310800000000 O
atom_frac 0.3414639500000000 0.5893855400000000 0.9061309900000001 O
