#=======================================================
# FHI-aims file: ./geometry.in
# Created using the Atomic Simulation Environment (ASE)
# Mon Feb  7 19:01:11 2022
#=======================================================
lattice_vector 4.3184813100000001 -0.2231147100000000 0.3267805300000000 
lattice_vector -0.1675539200000000 8.2290907999999998 -0.2865140500000000 
lattice_vector -0.0049458300000000 0.0912291700000000 22.6707736199999985 
atom_frac 0.9759874999999999 0.5012089000000001 0.5000542000000000 Fe
atom_frac 0.4981927000000000 0.5033031100000002 1.0008360900000000 Fe
    initial_moment         2.000000
atom_frac -0.0547741700000000 0.2650076000000001 0.6176990800000000 H
atom_frac 0.3715145700000000 0.6668089200000001 0.8697784100000000 H
atom_frac 1.1253528200000000 0.7240842000000001 0.3900853700000000 H
atom_frac 0.6144984500000000 0.3626295200000001 0.1303087700000000 H
atom_frac -0.3066482300000000 0.6591749500000000 0.7742976900000000 H
atom_frac 0.4018353600000000 0.2715245700000000 0.6990923000000000 H
atom_frac 1.2205172200000001 0.3411491000000001 0.1837959600000000 H
atom_frac 0.7662734900000000 0.6678772600000003 0.2763550000000000 H
atom_frac 0.8244782600000000 0.1557075600000001 0.7305311799999999 H
atom_frac 0.3057860900000000 0.7560425400000002 0.7824775999999999 H
atom_frac 0.3065989500000000 0.7888204700000001 0.2879281800000000 H
atom_frac 0.8706341700000000 0.1494902600000000 0.2365283100000000 H
atom_frac 0.6768999999999998 0.7293609800000002 0.7018208099999999 H
atom_frac 0.4471567400000000 0.1932914900000000 0.7995713700000000 H
atom_frac 0.2053450900000000 0.2443675300000001 0.2871136400000000 H
atom_frac 0.6275811400000000 0.8595193400000001 0.1785566200000000 H
atom_frac 0.9287882700000000 0.3525227900000000 0.9061792600000000 H
atom_frac 0.2718272299999999 0.6821739100000002 0.5945595299999999 H
atom_frac 0.1527436800000000 0.7830906700000001 0.1072221400000000 H
atom_frac 0.5186889200000000 0.3432294000000001 0.4536621000000001 H
atom_frac -0.0751916600000000 0.6030385900000003 0.8822436099999998 H
atom_frac 0.4162059299999999 0.3424985800000001 0.5434604800000000 H
atom_frac 1.1732250700000000 0.4946968100000000 0.1011786000000000 H
atom_frac 0.5042108199999999 0.6163546800000000 0.4527299900000000 H
atom_frac 0.8843648000000000 0.0454835500000000 0.8779007500000000 H
atom_frac 0.1460410600000000 0.9077773600000002 0.6504660200000000 H
atom_frac 0.1022638800000000 1.0035207500000001 0.1591806100000000 H
atom_frac 0.5327607400000000 0.0780706900000000 0.3817192799999999 H
atom_frac 0.4357809700000000 0.0045308600000000 0.4897504900000000 Pt
    initial_moment         2.000000
atom_frac -0.0016495300000000 1.0020816000000001 1.0038431500000000 Pt
    initial_moment        -2.000000
atom_frac 0.7457573199999999 0.8164124100000001 0.4847131300000000 C
atom_frac 0.2174671600000000 0.1826785000000000 0.0491735800000000 C
atom_frac 0.1164699800000000 0.1786803200000000 0.5023624799999999 C
atom_frac 0.7747406999999999 0.8247640100000000 0.9586744200000000 C
atom_frac 1.0189913799999999 0.3944466000000000 0.6138537400000000 C
atom_frac 0.4444432999999999 0.5427521100000001 0.8673090400000000 C
atom_frac 0.0726985000000000 0.5939762800000002 0.3819919200000000 C
atom_frac 0.6865811500000000 0.4923854700000000 0.1318608600000000 C
atom_frac 0.8562962800000000 0.4181350200000001 0.7472738800000001 C
atom_frac 0.2981797200000000 0.4876965400000001 0.7573482400000000 C
atom_frac 0.3251108100000000 0.5648827700000001 0.2280869800000000 C
atom_frac 0.8564979799999999 0.4125107500000000 0.2436304400000000 C
atom_frac 0.0743693200000000 0.8338146000000001 0.5060566600000000 C
atom_frac 0.8204572899999999 0.2028467300000000 -0.0147708600000000 C
atom_frac 0.7986563600000000 0.1797665300000000 0.4835960800000000 C
atom_frac 0.1722721800000000 0.7980685300000001 1.0205291999999999 C
atom_frac -0.1265237600000000 0.5789462300000001 0.7859243300000001 C
atom_frac 0.4287286700000000 0.4042069900000000 0.6929216000000000 C
atom_frac 1.1004362900000000 0.4519307600000000 0.1971905500000000 C
atom_frac 0.7260839599999999 0.5423550400000001 0.2908940500000000 C
atom_frac 0.8583525100000000 0.2567357300000001 0.7624102200000000 C
atom_frac 0.1923874200000000 0.6570064100000002 0.7563762700000001 C
atom_frac 0.2343976300000000 0.7309091700000002 0.2467836500000000 C
atom_frac 0.7897805900000000 0.2587412100000001 0.2595575400000000 C
atom_frac 0.9409538799999999 0.2218619900000000 0.8224634199999999 C
atom_frac 0.1626545300000000 0.7082615800000002 0.6911748000000001 C
atom_frac 0.1476150700000000 0.8116674500000001 0.2013058300000000 C
atom_frac 0.6491432700000000 0.2423936200000000 0.3222143800000000 C
atom_frac 0.8251389400000000 0.6395614000000001 0.6771914899999999 C
atom_frac 0.3019533300000000 0.2763617900000000 0.8283837399999999 C
atom_frac 0.3547400200000000 0.3321128700000001 0.3119809700000000 C
atom_frac 0.6884694800000000 0.7459993200000001 0.1553874700000000 C
atom_frac 0.7860359900000000 0.3439117200000000 0.8675296200000000 C
atom_frac 0.3703210199999999 0.6310793700000000 0.6325443400000000 C
atom_frac 0.0490771700000000 0.7232893500000003 0.1476748300000000 C
atom_frac 0.8646962000000000 0.3529497700000000 0.3578075800000000 C
atom_frac 0.8028019600000000 0.5276857100000002 0.8498157300000000 C
atom_frac 0.2880118999999999 0.4558909300000001 0.6387114100000000 C
atom_frac 0.0335109700000000 0.5359608900000001 0.1403379000000000 C
atom_frac 0.8436825199999999 0.5158791700000002 0.3488045300000000 C
atom_frac 0.1400611200000000 0.6969889700000002 0.5202891800000000 N
atom_frac 0.7631270699999999 0.3386441800000000 0.9883538300000000 N
atom_frac 0.7204435700000001 0.3299256000000000 0.4732744800000000 N
atom_frac 0.2204507200000000 0.6606225700000000 0.0155287300000000 N
atom_frac 0.7464296600000000 0.4683578000000000 0.6938599200000000 N
atom_frac 0.3311567100000000 0.4378124500000001 0.8115296700000000 N
atom_frac 0.3997571100000000 0.4890188200000001 0.2897640100000000 N
atom_frac 0.5852708500000000 0.5932377000000001 0.1842635900000000 N
atom_frac 0.6989770300000000 0.6583471900000000 0.4737464199999999 N
atom_frac 0.2934691700000000 0.3204616600000000 0.0412384000000000 N
atom_frac 0.2085052700000000 0.3261028900000000 0.5237575300000000 N
atom_frac 0.6985907500000000 0.6861972000000001 0.9634165200000000 N
atom_frac 0.8061890799999999 0.4842253800000001 0.5843789699999999 N
atom_frac 0.3608642000000000 0.4397286800000000 0.9159605999999999 N
atom_frac 0.2246701300000000 0.4849848500000001 0.4091261100000000 N
atom_frac 0.6183218300000000 0.5822634000000001 0.0785665500000000 N
atom_frac 0.7333666400000000 0.6473419600000001 0.6167843300000000 N
atom_frac 0.4635183700000001 0.2910341800000000 0.8874686899999999 N
atom_frac 0.1389123700000000 0.3291388600000001 0.3827546800000000 N
atom_frac 0.6179419600000000 0.7326409699999999 0.0934943200000000 N
atom_frac 0.8725687000000000 0.0585385400000000 0.8353079500000000 O
atom_frac 0.1778378400000000 0.8776741300000002 0.6908768400000000 O
atom_frac 0.1224863300000000 0.9742777500000002 0.2003469900000000 O
atom_frac 0.5895304300000000 0.0831473700000000 0.3384999300000000 O
