#=======================================================
# FHI-aims file: ./geometry.in
# Created using the Atomic Simulation Environment (ASE)
# Mon Feb  7 19:01:11 2022
#=======================================================
lattice_vector 6.7602751799999998 -0.0479224900000000 2.3917617199999999 
lattice_vector -0.1148153600000000 9.9034994399999992 1.4014439100000000 
lattice_vector 0.0389898800000000 -0.0224271600000000 10.6973744699999997 
atom_frac 0.0860261000000000 0.9000921499999999 0.5897348500000000 V
atom_frac 0.9139742600000000 0.0999076500000000 0.4102653100000000 V
atom_frac 0.4326233900000000 0.0659652900000000 0.3802191200000001 V
atom_frac 0.5673769700000000 0.9340345099999999 0.6197810500000001 V
atom_frac 0.8649696999999998 0.9501017899999999 0.9015582300000001 V
atom_frac 0.1350306400000000 0.0498980000000000 0.0984419400000000 V
atom_frac 0.4389786100000000 0.8210067800000000 0.1909075100000000 Cu
    initial_moment         1.000000
atom_frac 0.5610217400000000 0.1789930200000000 0.8090926400000001 Cu
    initial_moment         1.000000
atom_frac 0.4166019700000000 0.3996146800000000 0.3130129600000000 H
atom_frac 0.5833983500000000 0.6003851199999999 0.6869872200000001 H
atom_frac 0.6583937599999998 0.3817719199999999 0.3941970500000001 H
atom_frac 0.3416065699999999 0.6182278600000000 0.6058031100000000 H
atom_frac 0.9386879900000000 0.4874495600000001 0.4306389700000000 H
atom_frac 0.0613123500000000 0.5125502199999999 0.5693611800000000 H
atom_frac 1.0022230000000001 0.7406976100000000 0.3610363400000001 H
atom_frac -0.0022226400000000 0.2593021600000000 0.6389638200000001 H
atom_frac 0.7729996300000000 0.8694219400000001 0.2573427800000000 H
atom_frac 0.2270007300000000 0.1305778400000000 0.7426573900000001 H
atom_frac 0.3180692700000000 0.8057261699999999 0.9703644600000001 H
atom_frac 0.6819310300000000 0.1942736200000000 0.0296357200000000 H
atom_frac 0.1881659300000000 0.6351448600000000 0.8715280100000001 H
atom_frac 0.8118343400000000 0.3648549200000000 0.1284721800000000 H
atom_frac 0.1554359200000000 0.3908281900000000 0.9840857900000000 H
atom_frac 0.8445643599999999 0.6091715999999999 0.0159144000000000 H
atom_frac 0.2612472400000000 0.3331252100000000 0.1822289800000001 H
atom_frac 0.7387530700000000 0.6668745800000000 0.8177712100000000 H
atom_frac 0.5666980700000001 0.5695993200000000 0.3078754800000000 C
atom_frac 0.4333022599999999 0.4304004699999999 0.6921246900000000 C
atom_frac 0.6868199100000000 0.4906093400000001 0.3678204500000001 C
atom_frac 0.3131804100000000 0.5093904499999999 0.6321797100000002 C
atom_frac 0.8435028199999999 0.5508458500000000 0.3869573500000001 C
atom_frac 0.1564975200000000 0.4491539299999999 0.6130428100000002 C
atom_frac 0.8800784000000000 0.6891371399999999 0.3472506000000002 C
atom_frac 0.1199219400000000 0.3108626400000000 0.6527495600000001 C
atom_frac 0.7551620300000000 0.7607932200000000 0.2903130600000000 C
atom_frac 0.2448383100000000 0.2392065600000000 0.7096871100000001 C
atom_frac 0.2980701000000000 0.7000762899999999 0.0156420000000000 C
atom_frac 0.7019301999999998 0.2999235000000000 0.9843581700000003 C
atom_frac 0.2272869200000000 0.6043563700000000 0.9614110800000002 C
atom_frac 0.7727133799999999 0.3956434100000000 0.0385891100000000 C
atom_frac 0.2097654900000000 0.4707145200000001 0.0236872000000000 C
atom_frac 0.7902348100000000 0.5292852600000001 0.9763129800000002 C
atom_frac 0.2671681000000000 0.4375118500000000 0.1341913600000001 C
atom_frac 0.7328322100000000 0.5624879500000000 0.8658088200000000 C
atom_frac 0.3444637900000000 0.5396578100000000 0.1814502800000000 C
atom_frac 0.6555365399999999 0.4603419899999999 0.8185498900000002 C
atom_frac 0.4180236200000000 0.5041189600000000 0.2844082800000000 N
atom_frac 0.5819767000000000 0.4958808299999999 0.7155919000000002 N
atom_frac 0.5999282000000000 0.7032791500000000 0.2720527200000001 N
atom_frac 0.4000721400000000 0.2967206400000000 0.7279474400000000 N
atom_frac 0.3515387900000000 0.6685435700000000 0.1253648800000000 N
atom_frac 0.6484615300000000 0.3314562300000000 0.8746352900000002 N
atom_frac 0.6765562000000001 0.8558126500000000 0.9969181500000001 O
atom_frac 0.3234441300000000 0.1441871300000000 0.0030820100000000 O
atom_frac 0.2152953900000000 0.9129419299999998 0.1696944300000001 O
atom_frac 0.7847049399999999 0.0870578700000000 0.8303057400000001 O
atom_frac 0.5065771000000000 0.9867244500000000 0.2449085200000000 O
atom_frac 0.4934232499999999 0.0132753500000000 0.7550916400000000 O
atom_frac 0.4530465400000000 0.2283594000000000 0.3369146200000001 O
atom_frac 0.5469538200000000 0.7716404000000000 0.6630855500000001 O
atom_frac 0.1537954400000000 0.0400416700000000 0.4239831500000000 O
atom_frac 0.8462049200000000 0.9599581400000000 0.5760170200000001 O
atom_frac 0.3360509500000000 0.9687291500000000 0.5665757000000000 O
atom_frac 0.6639494200000000 0.0312706500000000 0.4334244600000002 O
atom_frac 0.1253039300000000 0.7597126799999999 0.5319188800000001 O
atom_frac 0.8746964200000000 0.2402871100000000 0.4680812900000001 O
atom_frac 0.0104251000000000 0.8603674300000000 0.7661870600000001 O
atom_frac 0.9895752600000000 0.1396323700000000 0.2338131000000000 O
atom_frac 0.0000001700000000 0.9999998900000001 1.0000000899999999 O
