#=======================================================
# FHI-aims file: ./geometry.in
# Created using the Atomic Simulation Environment (ASE)
# Mon Feb  7 19:01:14 2022
#=======================================================
lattice_vector 9.5859980999999994 -0.0000080200000000 -0.0000044500000000 
lattice_vector -0.0000031900000000 9.2059242700000006 -1.4824466999999999 
lattice_vector -0.0000111100000000 -0.0202001700000000 14.9680015199999996 
atom_frac 0.1279368300000000 0.2230402599999999 0.9832306000000000 Ti
atom_frac 0.8720632899999999 0.2230402700000000 0.4832306000000001 Ti
atom_frac 0.8720632099999999 0.7769598500000000 0.0167693800000000 Ti
atom_frac 0.1279367500000000 0.7769598500000000 0.5167693799999999 Ti
atom_frac 0.2098031900000000 0.3212717399999999 0.7715732800000001 V
atom_frac 0.7901968500000000 0.3212717800000000 0.2715733000000000 V
atom_frac 0.7901968500000000 0.6787283800000000 0.2284267000000000 V
atom_frac 0.2098032000000000 0.6787283399999999 0.7284266800000000 V
atom_frac 0.9854343200000000 0.0778932000000000 0.6573950700000000 V
atom_frac 0.0145657400000000 0.0778930500000000 0.1573950500000000 V
atom_frac 0.0145657100000000 0.9221069199999998 0.3426049100000000 V
atom_frac 0.9854343099999999 0.9221070600000000 0.8426049300000001 V
atom_frac 0.3672108599999999 0.0148118000000000 0.8673405300000000 H
atom_frac 0.6327895500000000 0.0148117400000000 0.3673405500000000 H
atom_frac 0.6327891800000000 0.9851883100000000 0.1326594400000000 H
atom_frac 0.3672104999999999 0.9851883699999999 0.6326594300000000 H
atom_frac 0.6275258199999999 0.9910827199999999 0.8610226000000001 H
atom_frac 0.3724745800000000 0.9910829099999998 0.3610226900000000 H
atom_frac 0.3724742200000000 0.0089173900000000 0.1389773800000000 H
atom_frac 0.6275254600000000 0.0089172000000000 0.6389772900000000 H
atom_frac 0.7719073400000001 0.1629228300000000 0.9732718900000000 H
atom_frac 0.2280928400000000 0.1629230800000000 0.4732720100000001 H
atom_frac 0.2280927000000000 0.8370772799999999 0.0267280900000000 H
atom_frac 0.7719072000000000 0.8370770300000000 0.5267279700000000 H
atom_frac 0.6523727000000000 0.3526643400000000 0.0782655200000000 H
atom_frac 0.3476272100000000 0.3526645400000001 0.5782656100000000 H
atom_frac 0.3476273400000000 0.6473357699999999 0.9217344600000000 H
atom_frac 0.6523728300000000 0.6473355700000001 0.4217343800000000 H
atom_frac 0.5441407900000000 0.5167780899999999 0.1501684800000000 H
atom_frac 0.4558590500000000 0.5167782600000000 0.6501685699999999 H
atom_frac 0.4558592499999999 0.4832220200000000 0.8498315000000001 H
atom_frac 0.5441409899999999 0.4832218599999999 0.3498314100000001 H
atom_frac 0.4025763800000000 0.7189058699999999 0.2296783600000000 H
atom_frac 0.5974233000000000 0.7189059699999999 0.7296783899999999 H
atom_frac 0.5974236500000000 0.2810942399999999 0.7703216199999999 H
atom_frac 0.4025767400000000 0.2810941499999999 0.2703215900000000 H
atom_frac 0.1398190000000000 0.7135742599999999 0.2046107500000000 H
atom_frac 0.8601807299999999 0.7135740800000000 0.7046106700000000 H
atom_frac 0.8601810400000000 0.2864258500000000 0.7953892299999999 H
atom_frac 0.1398193100000000 0.2864260300000000 0.2953893200000000 H
atom_frac 0.0370946200000000 0.5027300900000000 0.1016507200000000 H
atom_frac 0.9629052999999999 0.5027298500000000 0.6016505800000000 H
atom_frac 0.9629054099999999 0.4972700299999999 0.8983492500000000 H
atom_frac 0.0370947400000000 0.4972702600000000 0.3983494000000001 H
atom_frac 0.4338559100000000 0.0890278500000000 0.9128069200000001 C
atom_frac 0.5661443999999999 0.0890278400000000 0.4128069500000001 C
atom_frac 0.5661441300000000 0.9109722600000000 0.0871930600000000 C
atom_frac 0.4338556400000000 0.9109722700000000 0.5871930300000000 C
atom_frac 0.5783115800000000 0.0756794000000000 0.9097896200000001 C
atom_frac 0.4216887400000000 0.0756795500000000 0.4097896800000000 C
atom_frac 0.4216884599999999 0.9243207100000003 0.0902103600000000 C
atom_frac 0.5783113000000000 0.9243205599999996 0.5902103000000000 C
atom_frac 0.6578832999999999 0.1691588400000000 0.9712993000000001 C
atom_frac 0.3421168800000000 0.1691590200000000 0.4712994000000000 C
atom_frac 0.3421167399999999 0.8308412700000000 0.0287006800000000 C
atom_frac 0.6578831599999999 0.8308410899999999 0.5287005800000000 C
atom_frac 0.5908684199999998 0.2764189300000000 0.0310358900000000 C
atom_frac 0.4091316300000000 0.2764190900000000 0.5310359600000000 C
atom_frac 0.4091316200000000 0.7235811700000000 0.9689640900000001 C
atom_frac 0.5908684099999999 0.7235810300000000 0.4689640200000000 C
atom_frac 0.4459289699999999 0.2862425699999999 0.0281513000000000 C
atom_frac 0.5540710700000000 0.2862426399999999 0.5281513000000000 C
atom_frac 0.5540710700000000 0.7137575400000000 0.9718486800000000 C
atom_frac 0.4459289699999999 0.7137574800000001 0.4718486800000001 C
atom_frac 0.3671002199999999 0.4040951800000000 0.0829407800000000 C
atom_frac 0.6328997300000000 0.4040952400000000 0.5829408000000000 C
atom_frac 0.6328998199999999 0.5959049299999999 0.9170592000000001 C
atom_frac 0.3671003100000000 0.5959048799999997 0.4170591800000000 C
atom_frac 0.4312593699999999 0.5167044399999999 0.1405651600000000 C
atom_frac 0.5687404700000001 0.5167045499999999 0.6405651999999998 C
atom_frac 0.5687406699999998 0.4832956800000001 0.8594348200000000 C
atom_frac 0.4312595699999999 0.4832955700000001 0.3594347800000000 C
atom_frac 0.3509986800000000 0.6295790599999999 0.1856291100000000 C
atom_frac 0.6490010799999999 0.6295790999999999 0.6856291100000002 C
atom_frac 0.6490013500000000 0.3704210500000000 0.8143708700000000 C
atom_frac 0.3509989600000000 0.3704210199999999 0.3143708700000001 C
atom_frac 0.2078015600000000 0.6267954400000000 0.1722267500000000 C
atom_frac 0.7921982399999999 0.6267953100000000 0.6722267099999999 C
atom_frac 0.7921984800000000 0.3732046700000000 0.8277732299999999 C
atom_frac 0.2078018000000000 0.3732047999999999 0.3277732700000000 C
atom_frac 0.1493058000000000 0.5104818200000000 0.1149501900000000 C
atom_frac 0.8506940899999998 0.5104816900000001 0.6149500900000000 C
atom_frac 0.8506942400000000 0.4895182900000000 0.8850497899999999 C
atom_frac 0.1493059500000000 0.4895184300000000 0.3850498900000000 C
atom_frac 0.3690469800000000 0.1909331000000000 0.9712653700000001 N
atom_frac 0.6309531999999999 0.1909330500000000 0.4712653900000000 N
atom_frac 0.6309530599999998 0.8090670199999999 0.0287346100000000 N
atom_frac 0.3690468500000000 0.8090670699999999 0.5287345900000000 N
atom_frac 0.2269319900000000 0.4016588699999999 0.0715640400000000 N
atom_frac 0.7730679599999999 0.4016588099999999 0.5715639899999999 N
atom_frac 0.7730680599999998 0.5983412499999999 0.9284359300000001 N
atom_frac 0.2269320800000000 0.5983412999999999 0.4284359900000000 N
atom_frac 0.9676302100000000 0.2804359200000000 0.0076170700000000 O
atom_frac 0.0323699300000000 0.2804356599999999 0.5076169100000000 O
atom_frac 0.0323698300000000 0.7195641999999999 0.9923829100000000 O
atom_frac 0.9676301099999999 0.7195644600000000 0.4923830799999999 O
atom_frac 0.1019007800000000 0.0374087100000000 0.8970403100000000 O
atom_frac 0.8980991899999999 0.0374087000000000 0.3970402500000000 O
atom_frac 0.8980992600000000 0.9625914099999997 0.1029596700000000 O
atom_frac 0.1019008500000000 0.9625914099999999 0.6029597200000000 O
atom_frac 0.3468346400000000 0.2237915600000000 0.7485872400000001 O
atom_frac 0.6531654499999999 0.2237916800000000 0.2485873100000000 O
atom_frac 0.6531653899999998 0.7762085600000000 0.2514127500000000 O
atom_frac 0.3468345899999999 0.7762084399999999 0.7514126700000000 O
atom_frac 0.0658800800000000 0.2397494100000000 0.7042918800000000 O
atom_frac 0.9341200400000000 0.2397494200000000 0.2042918700000000 O
atom_frac 0.9341199499999999 0.7602507099999999 0.2957080900000000 O
atom_frac 0.0658800000000000 0.7602506999999998 0.7957081100000000 O
atom_frac 0.2436286100000000 0.5000000200000000 0.7499999600000000 O
atom_frac 0.7563714299999998 0.5000000899999999 0.2500000200000000 O
atom_frac 0.1649862400000000 0.3286202699999999 0.8809801300000000 O
atom_frac 0.8350138499999998 0.3286202100000000 0.3809801100000000 O
atom_frac 0.8350137899999999 0.6713798499999999 0.1190198400000000 O
atom_frac 0.1649861900000000 0.6713799100000001 0.6190198700000001 O
atom_frac 0.9175657300000000 0.0000001400000000 0.7500000100000001 O
atom_frac 0.0824343100000000 0.9999999699999998 0.2499999600000000 O
atom_frac 0.1452142700000000 0.1098926800000000 0.0898012500000000 O
atom_frac 0.8547858300000000 0.1098927900000000 0.5898012900000001 O
atom_frac 0.8547857799999999 0.8901074300000000 0.9101987200000000 O
atom_frac 0.1452142100000000 0.8901073200000001 0.4101986900000000 O
