#=======================================================
# FHI-aims file: geometry_Cu2H24C40N4O8.in
# Created using the Atomic Simulation Environment (ASE)
# Wed Dec  8 17:56:10 2021
#=======================================================
lattice_vector 8.3216198380000002 -0.1861057330000000 -2.6851254810000000 
lattice_vector -2.7629331950000000 8.0990847989999999 -1.7902479640000000 
lattice_vector -0.0613129200000000 0.1495527200000000 12.8703191480000001 
atom_frac 0.4204773276368526 0.1706684102421079 0.2499808375828466 Cu
atom_frac 0.5795217345744134 0.8293301142203333 0.7500190953901866 Cu
atom_frac 0.5678768984076540 0.7883687540694169 0.3616768343746132 H
atom_frac 0.9258917967159448 0.2056337209615932 0.1379368285958904 H
atom_frac 0.4321266282490441 0.2116322614084183 0.6383274844361465 H
atom_frac 0.0741064937829563 0.7943697578869331 0.8620613015807450 H
atom_frac 0.5887644523470712 0.5170869517488441 0.3838871623203843 H
atom_frac 0.6326836642142695 0.2045948498101779 0.1159792950234433 H
atom_frac 0.4112362374298897 0.4829127923756361 0.6161156108087554 H
atom_frac 0.3673121467309314 0.7954011781599134 0.8840180584177733 H
atom_frac 0.2549195099978049 0.1201415454785959 0.0362107593234313 H
atom_frac 0.5838687432946087 0.2182893137803248 0.4637672750069726 H
atom_frac 0.7450767762593599 0.8798630551262648 0.9637909936523672 H
atom_frac 0.4161326853160787 0.7817018379403609 0.5362336800886142 H
atom_frac 0.0488420578051745 0.1134019824712809 0.8512550929160484 H
atom_frac 0.7624845029820618 0.1980004070979646 0.6488725180370382 H
atom_frac 0.9511574758527386 0.8866051717942155 0.1487461388111555 H
atom_frac 0.2375230070101182 0.8019946125129354 0.3511271359062677 H
atom_frac 0.0110252916379920 0.3768874578187678 0.8178279166577982 H
atom_frac 0.0591496228131163 0.1933838064618171 0.6821423015419300 H
atom_frac 0.9889782891800177 0.6231210051993512 0.1821743414716437 H
atom_frac 0.9408574998733810 0.8066137117802297 0.3178552882105237 H
atom_frac 0.1785490588112282 0.6444098073766540 0.9695532666724419 H
atom_frac 0.1743568887252565 0.2083038682457072 0.5301015166966111 H
atom_frac 0.8214524877853931 0.3555960965038665 0.0304513190115189 H
atom_frac 0.8256466263354695 0.7916973187369862 0.4698934997729226 H
atom_frac 0.3893713615615224 0.8523222756413489 0.1738775206275278 C
atom_frac 0.1779380245961519 0.2154760337105301 0.3258156543207917 C
atom_frac 0.6106265222816845 0.1476798637316250 0.8261257772597332 C
atom_frac 0.8220606212961171 0.7845212941970628 0.6741816944118426 C
atom_frac 0.4001170903944881 0.6858595265449096 0.1839459603576898 C
atom_frac 0.0013969477062616 0.2158884286640017 0.3157501187824182 C
atom_frac 0.5998856365028472 0.3141427338409458 0.8160568108022376 C
atom_frac 0.9986004859729858 0.7841088904284774 0.6842461988393964 C
atom_frac 0.5008470118584681 0.6774981525284502 0.2882964065718809 C
atom_frac 0.8885758173883712 0.2121726186683333 0.2113971795392686 C
atom_frac 0.4991549181785118 0.3225053098892091 0.7117071425225205 C
atom_frac 0.1114224440972151 0.7878271649941979 0.7886004305878207 C
atom_frac 0.5130387459104070 0.5247430154286475 0.3009726083584070 C
atom_frac 0.7232910796229319 0.2118115226158324 0.1988538454843224 C
atom_frac 0.4869631841265729 0.4752604469890115 0.6990309407360017 C
atom_frac 0.2767055281826246 0.7881833033224553 0.8011427300224201 C
atom_frac 0.3277802881348392 0.3855126907105201 0.1102074080036672 C
atom_frac 0.7750625906199744 0.2173576019357597 0.3896682170891098 C
atom_frac 0.6722204296891120 0.6144907628920179 0.8897951099799147 C
atom_frac 0.2249344015922786 0.7826347682475968 0.6103280970231779 C
atom_frac 0.2367507179655988 0.2341599377467958 0.0210592864201189 C
atom_frac 0.7130841228058385 0.2155757079658116 0.4789154215708750 C
atom_frac 0.7632455682915590 0.7658446628580576 0.9789424665556796 C
atom_frac 0.2869160926254892 0.7844154492318296 0.5210837272187804 C
atom_frac 0.1244630628103067 0.2315619818665695 0.9174902480803411 C
atom_frac 0.8142586929634490 0.2072265870058770 0.5825538321045444 C
atom_frac 0.8755348471472357 0.7684438955686089 0.0825112442711600 C
atom_frac 0.1857475748360499 0.7927647428959828 0.4174434954832976 C
atom_frac 0.1022973465060772 0.3800808378338515 0.8990220075177933 C
atom_frac 0.9811408542453746 0.2034771956916471 0.6009711845174978 C
atom_frac 0.8977038137511997 0.6199275503857464 0.1009812891704201 C
atom_frac 0.0188613954073418 0.7965165206435855 0.3990256367176457 C
atom_frac 0.1939097861252249 0.5295439730766203 0.9829722932204776 C
atom_frac 0.0462619179311616 0.2105906588048184 0.5167943759835368 C
atom_frac 0.8060917604713961 0.4704619308038999 0.0170322924634831 C
atom_frac 0.9537415681162498 0.7894068329918794 0.4832001204364574 C
atom_frac 0.3089636230185704 0.5371418961416338 0.0910189770234169 C
atom_frac 0.9457804503311350 0.2176680710791103 0.4087722260182289 C
atom_frac 0.6910358864576764 0.4628614914775113 0.9089856106297491 C
atom_frac 0.0542161565080903 0.7823267691512541 0.5912235742934088 C
atom_frac 0.4297697174585265 0.3844846821117116 0.2153659522173115 N
atom_frac 0.6688603669147214 0.2143280322023315 0.2845674839602737 N
atom_frac 0.5702285778720295 0.6155187252764590 0.7846360539348328 N
atom_frac 0.3311354150171582 0.7856643005817645 0.7154293494313964 N
atom_frac 0.3993699623440390 0.9482145708966454 0.2678307839595817 O
atom_frac 0.1800836827922722 0.1317007247216394 0.2318865760319468 O
atom_frac 0.6006303439925701 0.0517876146906957 0.7321730257591171 O
atom_frac 0.8199129250132841 0.8682941012166480 0.7681099994747953 O
atom_frac 0.3766307762091258 0.8909825184802639 0.0837174681844814 O
atom_frac 0.3066003656928941 0.2928566978422965 0.4160329281573354 O
atom_frac 0.6233642717206820 0.1090183352472707 0.9162850592162571 O
atom_frac 0.6933978938600305 0.7071431144043813 0.5839631315795516 O
