#=======================================================
# FHI-aims file: geometry_Cu4H28C44I4N8O4.in
# Created using the Atomic Simulation Environment (ASE)
# Wed Dec  8 17:56:10 2021
#=======================================================
lattice_vector 4.2660655880000000 0.0116467310000000 -0.0000035530000000 
lattice_vector -1.8702803150000000 13.7531248529999992 -0.0000301740000000 
lattice_vector -0.0000133300000000 -0.0000407070000000 17.5913692120000000 
atom_frac 0.8250823752887158 0.4914172836962577 0.5593650864214936 Cu
atom_frac 0.6749167590654890 0.0085807293918805 0.0593656266495586 Cu
atom_frac 0.1749235337977807 0.5085811933114142 0.4406328963947105 Cu
atom_frac 0.3250760467201912 0.9914199400380351 0.9406334930889244 Cu
atom_frac 0.4858144071604255 0.4328478377526819 0.7002402506819295 H
atom_frac 0.0141888838273942 0.0671493138392805 0.2002392215253863 H
atom_frac 0.5142059924938707 0.5671462643439040 0.2997594375114475 H
atom_frac 0.9858022160519083 0.9328528112502423 0.7997598982152498 H
atom_frac 0.2179967239040507 0.7656002277114025 0.8467438603700472 H
atom_frac 0.2819990459920659 0.7343988988515446 0.3467423762292512 H
atom_frac 0.7820088665405436 0.2343975224653575 0.1532563962871762 H
atom_frac 0.7180004707725087 0.2656010377877464 0.6532567435093313 H
atom_frac 0.5831942289456646 0.8550615560804000 0.7527963123918155 H
atom_frac 0.9168041915355328 0.6449372497898550 0.2527945758030228 H
atom_frac 0.4168046505225504 0.1449369268886612 0.2472045127258937 H
atom_frac 0.0831956438885300 0.3550634136921145 0.7472062493186230 H
atom_frac 0.6128747972727311 0.7939749979253604 0.6206433395473283 H
atom_frac 0.8871134006198319 0.7060237614075147 0.1206418005272241 H
atom_frac 0.3871239695413137 0.2060285748864387 0.3793557801973364 H
atom_frac 0.1128804737708364 0.2939739986892106 0.8793578876670622 H
atom_frac 0.2591520850567832 0.6459844872465080 0.5792818222331348 H
atom_frac 0.2408396142301754 0.8540145136919647 0.0792807318139666 H
atom_frac 0.7408440199075984 0.3540183607203885 0.4207201398126656 H
atom_frac 0.7591542601680387 0.1459832464098056 0.9207206617620688 H
atom_frac 0.3120453679530755 0.6271326077867483 0.9178455546702011 H
atom_frac 0.1879607220749834 0.8728676580492590 0.4178462129439566 H
atom_frac 0.6879533988660000 0.3728709650284117 0.0821547019956270 H
atom_frac 0.8120408192479257 0.1271315497680660 0.5821529067937805 H
atom_frac 0.6625249145210291 0.3517238520922347 0.9408962297019912 H
atom_frac 0.8374742938798577 0.1482742381451843 0.4408950409773810 H
atom_frac 0.3374785387186066 0.6482797167542670 0.0591040269647749 H
atom_frac 0.1625202178096926 0.8517249756234475 0.5591035102983639 H
atom_frac 0.6483616868588554 0.4958849733462357 0.7184345410612494 C
atom_frac 0.8516358733501261 0.0041125284942467 0.2184334319657424 C
atom_frac 0.3516452908426828 0.5041105943349674 0.2815662840530919 C
atom_frac 0.1483575697394527 0.9958895946109434 0.7815656877753626 C
atom_frac 0.6592786866801389 0.5274426008529500 0.7955349062836917 C
atom_frac 0.8407201116719207 0.9725564577007189 0.2955348313336899 C
atom_frac 0.3407245605441246 0.4725551513014208 0.2044630765307289 C
atom_frac 0.1592823856018127 0.0274449306261531 0.7044631514868129 C
atom_frac 0.0298357556263582 0.6552339052819742 0.7663616012241903 C
atom_frac 0.4701629214059578 0.8447676514120059 0.2663600032515774 C
atom_frac 0.9701654670496180 0.3447645757010773 0.2336386554334027 C
atom_frac 0.5298398945297791 0.1552344637592283 0.7336402534125740 C
atom_frac 0.2272220415832605 0.7406502737081549 0.7880883510900460 C
atom_frac 0.2727735283783943 0.7593492329120790 0.2880875172758622 C
atom_frac 0.7727848234741612 0.2593503838225004 0.2119130424935919 C
atom_frac 0.7272230078820457 0.2406492520429921 0.7119138763019635 C
atom_frac 0.4294998824978933 0.7898414211103668 0.7357014228238513 C
atom_frac 0.0704931997397793 0.7101585046115273 0.2357009070082299 C
atom_frac 0.5704972910614217 0.2101585175166178 0.2642988338354257 C
atom_frac 0.9295063170348498 0.2898414320344854 0.7643004865726796 C
atom_frac 0.4443133924016535 0.7557643949816107 0.6603826139443287 C
atom_frac 0.0556802985302624 0.7442379927923709 0.1603822090519671 C
atom_frac 0.5556794133865421 0.2442362744499888 0.3396170742547398 C
atom_frac 0.9443221987510028 0.2557633955395389 0.8396174791502915 C
atom_frac 0.2494195853793144 0.6735684518653642 0.6371966317889531 C
atom_frac 0.2505756064594776 0.8264323431652083 0.1371948822163490 C
atom_frac 0.7505819559385641 0.3264307559486069 0.3628013510276206 C
atom_frac 0.7494225230431297 0.1735697759662783 0.8628025321439452 C
atom_frac 0.0371767430507077 0.6227672009473223 0.6892305412585884 C
atom_frac 0.4628182715312548 0.8772324480428819 0.1892290516951007 C
atom_frac 0.9628265041735488 0.3772305512070416 0.3107674415558321 C
atom_frac 0.5371771961116352 0.1227689462369809 0.8107689311239952 C
atom_frac 0.3957716945999862 0.5722379069512653 0.9538011777638005 C
atom_frac 0.1042239532215987 0.9277647618927246 0.4538008536161016 C
atom_frac 0.6042267535671327 0.4277649390262609 0.0461990789007203 C
atom_frac 0.8957732203377162 0.0722351767342602 0.5461994030431754 C
atom_frac 0.4884961256002924 0.4884103241545217 0.9224595469152205 C
atom_frac 0.0115024191139668 0.0115888740326042 0.4224594629894582 C
atom_frac 0.5114919937723670 0.5115903492490972 0.0775412782040732 C
atom_frac 0.9885021027231246 0.9884117854756621 0.5775396567513766 C
atom_frac 0.5917452221374830 0.4163124779004049 0.9674957337984581 C
atom_frac 0.9082537901449539 0.0836901326128370 0.4674960574803820 C
atom_frac 0.4082569564968636 0.5836881835972318 0.0325050913236566 C
atom_frac 0.0917460452715701 0.9163105308640948 0.5325030622595078 C
atom_frac 0.2600842318140977 0.3743391466754246 0.5441982431281290 I
atom_frac 0.2399189541881270 0.1256599897286960 0.0442009166384949 I
atom_frac 0.7399260450410095 0.6256585995259483 0.4557997396876984 I
atom_frac 0.7600765134673251 0.8743414045595652 0.9557999084835203 I
atom_frac 0.8360061826916620 0.5417307317188147 0.6664495057335104 N
atom_frac 0.6639858320043570 0.9582653871133924 0.1664493103722720 N
atom_frac 0.1639997264124204 0.4582677453006240 0.3335524563067764 N
atom_frac 0.3360039932771883 0.0417338306323032 0.8335520832054472 N
atom_frac 0.8402849581706848 0.6048557598862132 0.8194325900804245 N
atom_frac 0.6597093650452236 0.8951434439226630 0.3194321764432360 N
atom_frac 0.1597192450295281 0.3951441727945024 0.1805699404226004 N
atom_frac 0.3402898330774490 0.1048557658857162 0.6805692171363660 N
atom_frac 0.4667556280394507 0.4700145048278301 0.8437089610100301 O
atom_frac 0.0332455195859396 0.0299864062999973 0.3437089489774721 O
atom_frac 0.5332431387796247 0.5299890679873298 0.1562912956557980 O
atom_frac 0.9667543158330999 0.9700142571786112 0.6562907392230030 O
