#=======================================================
# FHI-aims file: geometry_Cu2H8C12N12O4.in
# Created using the Atomic Simulation Environment (ASE)
# Wed Dec  8 17:56:10 2021
#=======================================================
lattice_vector 5.9324337500000004 0.0000904970000000 -0.3380897670000000 
lattice_vector 0.0001118530000000 6.8581259929999998 0.0000891290000000 
lattice_vector 0.9080934410000000 0.0001335460000000 10.3853113819999994 
atom_frac 0.5935056579375837 0.2499845852036273 0.7526087202619820 Cu
atom_frac 0.4064883908114040 0.7500154097058240 0.2473871627640492 Cu
atom_frac 0.3595288394558125 0.5692394294529990 0.6120463847465486 H
atom_frac 0.6404850011903560 0.0692594780986937 0.3879638369606084 H
atom_frac 0.6404699477632292 0.4307649397262451 0.3879515782978444 H
atom_frac 0.3595232631215027 0.9307448908744931 0.6120382862005584 H
atom_frac 0.8294012541423825 0.5669208422655813 0.9013924766762216 H
atom_frac 0.1706074244652527 0.0669660184584444 0.0986079875800954 H
atom_frac 0.1705990637809549 0.4330791525009233 0.0986064991356201 H
atom_frac 0.8293980719922159 0.9330339762551888 0.9013901939184877 H
atom_frac 0.1265958453226759 0.2499773789293727 0.8400353305472522 C
atom_frac 0.8733994408309017 0.7500167834096133 0.1599634815073401 C
atom_frac 0.0847711907993940 0.2499850329830764 0.6999528202716050 C
atom_frac 0.9152235085511791 0.7500178780346759 0.3000498241984745 C
atom_frac 0.4640581438389332 0.6487934884194788 0.6777972488731052 C
atom_frac 0.5359395016784205 0.1487999010405475 0.3222110802245126 C
atom_frac 0.5359455286399921 0.3512079644249084 0.3222018361324785 C
atom_frac 0.4640705866374263 0.8512015516776118 0.6777901394429975 C
atom_frac 0.7247290729071452 0.6482868255784096 0.8363019059105241 C
atom_frac 0.2752688189845571 0.1483296208567069 0.1636939219124969 C
atom_frac 0.2752762768114039 0.3517175434913326 0.1636972336719182 C
atom_frac 0.7247333229173236 0.8516689157790439 0.8363041503923441 C
atom_frac 0.2410613409888782 0.2499935772705442 0.6045430762732735 N
atom_frac 0.7589319743963258 0.7500093338038525 0.3954575973454980 N
atom_frac 0.1253226011456334 0.2499928664987862 0.4948323471854651 N
atom_frac 0.8746743622221158 0.7500056701898288 0.5051665194326419 N
atom_frac 0.9067761855668480 0.2499863847178574 0.5227902436968037 N
atom_frac 0.0932226016776383 0.7500165263371129 0.4772077193609334 N
atom_frac 0.8780706448234527 0.2499813567324409 0.6506886669611021 N
atom_frac 0.1219212865200418 0.7500259287714288 0.3493100357663295 N
atom_frac 0.5935425353403403 0.5477903394002297 0.7571984646605970 N
atom_frac 0.4064483612312131 0.0478149268145458 0.2428017492494234 N
atom_frac 0.4064556653047474 0.4522096553393028 0.2428033309193580 N
atom_frac 0.5935571352517073 0.9521836097748064 0.7571964322624964 N
atom_frac 0.3334096909958362 0.2499725192959446 0.8745698410820779 O
atom_frac 0.6665828914327960 0.7500099779549672 0.1254356233429093 O
atom_frac 0.9599604068837734 0.2499780094183066 0.9168555626079709 O
atom_frac 0.0400536867419561 0.7500190687403786 0.0831525277773792 O
