#=======================================================
# FHI-aims file: geometry_Cu4H24C24S4N4.in
# Created using the Atomic Simulation Environment (ASE)
# Wed Dec  8 17:56:10 2021
#=======================================================
lattice_vector 6.0666685720000002 0.0000178020000000 -0.6267053690000000 
lattice_vector 0.0000533570000000 7.0015335939999996 0.0002459220000000 
lattice_vector 0.0816349860000000 0.0004567410000000 13.6649242409999996 
atom_frac 0.7835703031541641 0.1202200830134430 0.9438631289673793 Cu
atom_frac 0.7164334064802985 0.6202114932304711 0.0561386309350809 Cu
atom_frac 0.2164416723022597 0.8797701848839166 0.0561421922093004 Cu
atom_frac 0.2835556046691607 0.3797830600469255 0.9438583189615031 Cu
atom_frac 0.0942368036429855 0.8526728143574759 0.2648502806139064 H
atom_frac 0.4057740558213537 0.3527294366679996 0.7351562188185596 H
atom_frac 0.9057785944310692 0.1473160258830220 0.7351456841496785 H
atom_frac 0.5942313302238204 0.6472694008169455 0.2648487999980915 H
atom_frac 0.3788589044157433 0.1413865036112796 0.3303858887042495 H
atom_frac 0.1211113838899180 0.6414868896781060 0.6696044000989192 H
atom_frac 0.6211417266465702 0.8586080500314567 0.6696050079031296 H
atom_frac 0.8788808035892044 0.3585362281792611 0.3304014765649158 H
atom_frac 0.0075626793343844 0.8982189767551036 0.4368446231136076 H
atom_frac 0.4924226714321731 0.3983190222464900 0.5631605298991502 H
atom_frac 0.9924263810580172 0.1017712919851519 0.5631486701153819 H
atom_frac 0.5075744383434966 0.6017069520052020 0.4368470360625381 H
atom_frac 0.6495715998040694 0.0494868366917132 0.4700405012106544 H
atom_frac 0.8503971256010486 0.5496285571971455 0.5299585384391676 H
atom_frac 0.3504174901609574 0.9504977191575180 0.5299505980755655 H
atom_frac 0.1495868152300304 0.4504102715018449 0.4700476915319811 H
atom_frac 0.3152056969805840 0.1920451681847978 0.1613432929170742 H
atom_frac 0.1847818663279739 0.6920674738084358 0.8386445025959119 H
atom_frac 0.6848081323792030 0.8079565267729765 0.8386467452653292 H
atom_frac 0.8152119391816084 0.3079299352433935 0.1613636441391009 H
atom_frac 0.4918215235085981 0.1390502135051079 0.0799216281484547 H
atom_frac 0.0081850664676963 0.6390699353228442 0.9200689474751300 H
atom_frac 0.5081907176741537 0.8609386274212056 0.9200639466240547 H
atom_frac 0.9918384305377825 0.3609146194289252 0.0799376340101503 H
atom_frac 0.7848194120664331 0.9638723301202746 0.2003958056064477 C
atom_frac 0.7151451705546062 0.4639100860779807 0.7996144756895589 C
atom_frac 0.2151662158426575 0.0361222227462008 0.7996075753323879 C
atom_frac 0.2848421244203365 0.5360787538406627 0.2003875182063908 C
atom_frac 0.9372945490976221 0.9151445682606508 0.2799753884176255 C
atom_frac 0.5626874774091134 0.4152120500550041 0.7200272010189794 C
atom_frac 0.0626879119690216 0.0848628395706399 0.7200183336430400 C
atom_frac 0.4373046608270669 0.5848153523395041 0.2799823323124357 C
atom_frac 0.5806957311122076 0.0448543900346365 0.2192572786296552 C
atom_frac 0.9193243186594201 0.5449187654472994 0.7807311105928819 C
atom_frac 0.4193297380993428 0.9551173119549076 0.7807252441165318 C
atom_frac 0.0806859503782960 0.4550757869486263 0.2192785230500505 C
atom_frac 0.5354001688085148 0.0761041605950723 0.3166603318359691 C
atom_frac 0.9645698870116062 0.5762067225483493 0.6833275662838929 C
atom_frac 0.4646004819973725 0.9238832518504340 0.6833291022041836 C
atom_frac 0.0353796175116017 0.4238021136761106 0.3166653760875633 C
atom_frac 0.8883911147908846 0.9417197153871510 0.3764966275026325 C
atom_frac 0.6116118726113128 0.4418038262356774 0.6235059664264641 C
atom_frac 0.1116111242530806 0.0582734097972164 0.6234972700787225 C
atom_frac 0.3883902284474273 0.5582135786759537 0.3764981695982642 C
atom_frac 0.6874497650573018 0.0239386760175933 0.3947919854136970 C
atom_frac 0.8125522751929495 0.5240464905796786 0.6052146249067150 C
atom_frac 0.3125523165020354 0.9760573049208646 0.6052136137035405 C
atom_frac 0.1874613176835140 0.4759894814381695 0.3947929650279606 C
atom_frac 0.8477212174419575 0.9173303211133474 0.0784882395074575 S
atom_frac 0.6522756571806099 0.4173482076894004 0.9215105623150990 S
atom_frac 0.1522563018897785 0.0826456650578464 0.9215052564791719 S
atom_frac 0.3477462515379486 0.5826363473575993 0.0784915555239252 S
atom_frac 0.4208531996836767 0.0898943546008510 0.1404829488218695 N
atom_frac 0.0791375110772776 0.5899344700037261 0.8595269624676051 N
atom_frac 0.5791390470749816 0.9101016266307269 0.8595185402453183 N
atom_frac 0.9208676386921151 0.4100743641464462 0.1404956085478020 N
