#=======================================================
# FHI-aims file: geometry_Mg2Cu2H32C32O24.in
# Created using the Atomic Simulation Environment (ASE)
# Wed Dec  8 17:56:10 2021
#=======================================================
lattice_vector 6.4669782839999996 0.0000002050000000 0.0000492910000000 
lattice_vector 0.0000003280000000 6.8907601219999997 0.0000034520000000 
lattice_vector 0.0001642510000000 0.0000102100000000 20.4928956390000003 
atom_frac 0.5000001268191739 0.1153152748650399 0.0000002418606684 Mg
atom_frac 0.9999996264594131 0.8847129760818150 0.4999999573749463 Mg
atom_frac 0.9999999632076352 0.7249853298537589 0.0000008538252843 Cu
atom_frac 0.4999982437560035 0.2749979333132018 0.4999993454216280 Cu
atom_frac 0.4879417672678485 0.4127092599499990 0.9196403893417582 H
atom_frac 0.9879103032710788 0.5874016509121914 0.5803893938037489 H
atom_frac 0.0120876988215031 0.5874019181671101 0.4196111436838165 H
atom_frac 0.5120593451782581 0.4127090515704522 0.0803602069917915 H
atom_frac 0.2496910021441822 0.3773241784103902 0.9350790014023005 H
atom_frac 0.7496464022466824 0.6226735515867149 0.5649387526122708 H
atom_frac 0.2503515962930720 0.6226737588801541 0.4350607970443292 H
atom_frac 0.7503101139034244 0.3773240016062475 0.0649211188783809 H
atom_frac 0.5187612214564439 0.7774788758347951 0.9265772919736648 H
atom_frac 0.0187700855463078 0.2225174166532043 0.5734601158222219 H
atom_frac 0.9812294999110022 0.2225147032746976 0.4265390806685686 H
atom_frac 0.4812383076615063 0.7774786898452531 0.0734236694477985 H
atom_frac 0.2942578218703673 0.8808651673227745 0.9179070047667037 H
atom_frac 0.7942587898688062 0.1191456209653552 0.5821271258609430 H
atom_frac 0.2057408060733437 0.1191458818494837 0.4178721054549897 H
atom_frac 0.7057416967735223 0.8808649422826351 0.0820934338502468 H
atom_frac 0.8252188360693467 0.5828822703411730 0.7763508677490663 H
atom_frac 0.3252432442153363 0.4170922356351597 0.7236840898369293 H
atom_frac 0.6747594141284097 0.4170885344443819 0.2763155290689028 H
atom_frac 0.1747807128237824 0.5828802061899411 0.2236486953097625 H
atom_frac 0.8951164082529105 0.3803866103389453 0.6788476753498642 H
atom_frac 0.3951188334986854 0.6195951475717295 0.8211879219903295 H
atom_frac 0.6048838043174527 0.6195946419185322 0.1788111407183521 H
atom_frac 0.1048847074840324 0.3803871638433166 0.3211524438989670 H
atom_frac 0.9919727714365862 0.0322319642673747 0.6917353820134478 H
atom_frac 0.4919742695422827 0.9677410805587031 0.8083065810343583 H
atom_frac 0.5080252403022810 0.9677390912760940 0.1916933403406631 H
atom_frac 0.0080299259060865 0.0322325617243067 0.3082658304718889 H
atom_frac 0.0082322459732822 0.8875220857658944 0.8033616537414544 H
atom_frac 0.5081980157703327 0.1125032317109245 0.6966845883350814 H
atom_frac 0.4918000345284455 0.1125009126153529 0.3033146452228123 H
atom_frac 0.9917719109100175 0.8875200530438436 0.1966402465439074 H
atom_frac 0.9270914025537921 0.1525000275589221 0.8522467534099931 C
atom_frac 0.4270964273924136 0.8474918869716679 0.6477945457929337 C
atom_frac 0.5729015483441842 0.8474894181700067 0.3522049281234985 C
atom_frac 0.0729066436508319 0.1524996455951921 0.1477539305947317 C
atom_frac 0.8777671588714709 0.3504912598457538 0.8446232210904722 C
atom_frac 0.3777981038927933 0.6494963039602125 0.6554197792493069 C
atom_frac 0.6221983455968355 0.6494938548210597 0.3445802493489438 C
atom_frac 0.1222324135683195 0.3504879499183816 0.1553773962083724 C
atom_frac 0.8651229619078861 0.4301371380687868 0.7820425260884607 C
atom_frac 0.3651522825722608 0.5698417191858952 0.7179946793943301 C
atom_frac 0.6348472676435860 0.5698394547286513 0.2820048880578554 C
atom_frac 0.1348781487830024 0.4301350931575953 0.2179575764000106 C
atom_frac 0.9047394609662831 0.3155765620798264 0.7272390675115046 C
atom_frac 0.4047551620012655 0.6844080976960855 0.7727959955301528 C
atom_frac 0.5952459229236737 0.6844074492122444 0.2272030453469824 C
atom_frac 0.0952632076616453 0.3155758083404764 0.2727610735681408 C
atom_frac 0.9600479589049159 0.1210073037198569 0.7345981029596159 C
atom_frac 0.4600454580576994 0.8789744503193260 0.7654430377241184 C
atom_frac 0.5399556071200848 0.8789723321162483 0.2345564255784325 C
atom_frac 0.0399547294457534 0.1210065750782263 0.2654025916438130 C
atom_frac 0.9702041372743366 0.0402875240647163 0.7969509202747461 C
atom_frac 0.4701939713567641 0.9597087415582737 0.7030896835942428 C
atom_frac 0.5298070856323135 0.9597035367444418 0.2969097525096842 C
atom_frac 0.0297985592637886 0.0402855295842528 0.2030498015231501 C
atom_frac 0.9115399801628569 0.0574581667259082 0.9176470325232627 C
atom_frac 0.4114941965803851 0.9425366511803758 0.5823865340284086 C
atom_frac 0.5885068621380042 0.9425325364015507 0.4176133958345575 C
atom_frac 0.0884611683287915 0.0574565264251916 0.0823531955195662 C
atom_frac 0.8542493218110965 0.4869753937109209 0.9012243334226466 C
atom_frac 0.3541996550226826 0.5130136227340927 0.5988060929207251 C
atom_frac 0.6457952620179982 0.5130095532051939 0.4011930057141484 C
atom_frac 0.1457517831146049 0.4869751525534910 0.0987757499168822 C
atom_frac 0.0214300489321104 0.9024680056150060 0.9256742513376466 O
atom_frac 0.5213726540821070 0.0975166769983389 0.5743416729255982 O
atom_frac 0.4786269440416930 0.0975125449175707 0.4256580536517873 O
atom_frac 0.9785679212035133 0.9024648849216279 0.0743261800055777 O
atom_frac 0.7902751720335458 0.1261355825936263 0.9594017828163712 O
atom_frac 0.2901866728048432 0.8738200595993461 0.5406484703360590 O
atom_frac 0.7098113002613856 0.8738158139174033 0.4593509947107889 O
atom_frac 0.2097275157846070 0.1261340588117505 0.0405993980334785 O
atom_frac 0.0214870741128976 0.5180227431553490 0.9338659352876133 O
atom_frac 0.5213759354458034 0.4819880614030582 0.5661431571903606 O
atom_frac 0.4786189847791250 0.4819810025929100 0.4338544879754735 O
atom_frac 0.9785140276636000 0.5180240003970767 0.0661341375919093 O
atom_frac 0.6857716005820790 0.5730965060559186 0.9117952166673290 O
atom_frac 0.1856946446736458 0.4269288008171941 0.5882789619161598 O
atom_frac 0.8143018273535814 0.4269304949373948 0.4117226055856803 O
atom_frac 0.3142310419008253 0.5730962861982647 0.0882058136025137 O
atom_frac 0.3858056398802745 0.3126897990276661 0.9327339698872238 O
atom_frac 0.8857454514078427 0.6873645204168428 0.5672728819159616 O
atom_frac 0.1142540868627648 0.6873647427236446 0.4327276218906987 O
atom_frac 0.6141954827107980 0.3126896233723430 0.0672666601425789 O
atom_frac 0.4392680133091602 0.8981665722783631 0.9315162475741231 O
atom_frac 0.9392387487354483 0.1018558171737496 0.5684898590029162 O
atom_frac 0.0607608489852680 0.1018545950543910 0.4315084021901754 O
atom_frac 0.5607315035798449 0.8981663961958047 0.0684841852140323 O
