#=======================================================
# FHI-aims file: geometry_Cu2H22C14I2N4.in
# Created using the Atomic Simulation Environment (ASE)
# Wed Dec  8 17:56:10 2021
#=======================================================
lattice_vector 4.3150686690000004 0.0295982650000000 0.4823492880000000 
lattice_vector 0.6252177730000000 8.3952416190000001 1.2059903660000000 
lattice_vector 0.0393600720000000 0.0187260690000000 12.3963356519999994 
atom_frac 0.6922418854897288 0.4363821664658046 0.1103870505908375 Cu
atom_frac 0.3077590290557665 0.5636171220974547 0.8896125550067709 Cu
atom_frac 0.7814280122992728 0.4796884075244491 0.3578435822502187 H
atom_frac 0.2185680916675210 0.5203120889945366 0.6421560930128224 H
atom_frac 0.1536709156146188 0.3874739092864273 0.3222522569358405 H
atom_frac 0.8463253671714241 0.6125253970077722 0.6777467204714896 H
atom_frac 0.9602588457831588 0.3349489107027709 0.4555664535527413 H
atom_frac 0.0397374298977553 0.6650503938161165 0.5444333309937621 H
atom_frac 0.7942396214451221 0.0319678090239606 0.4642941572383919 H
atom_frac 0.2057493383004356 0.9680338998779235 0.5357072914429112 H
atom_frac 0.2191632449920320 0.8484725620453020 0.3215294536282798 H
atom_frac 0.7808349853775524 0.1515291131700138 0.6784724442943856 H
atom_frac 0.5137189582168914 0.7831578909727882 0.4103952407807798 H
atom_frac 0.4862742898598640 0.2168461841983600 0.5896066175238702 H
atom_frac 0.5891097293189632 0.7734679903443507 0.2671522044669814 H
atom_frac 0.4108847065464261 0.2265277372754254 0.7328520331002510 H
atom_frac 0.3017187113500128 0.2178055479688084 0.0934231561974102 H
atom_frac 0.6982891614923407 0.7821937166610055 0.9065761809768348 H
atom_frac 0.1679864029340052 0.0354178558951332 0.1626842271596446 H
atom_frac 0.8320238035508822 0.9645814043075163 0.8373134062617852 H
atom_frac 0.6565078421286471 0.8863654746124683 0.0889767522927016 H
atom_frac 0.3435044907590309 0.1136349642865113 0.9110231037883596 H
atom_frac 0.7934354035964547 0.0697888098923727 0.0235910331751370 H
atom_frac 0.2065722762163986 0.9302116414115885 0.9764106161331799 H
atom_frac 0.9266571987999157 0.3665233716222431 0.3684858197681606 C
atom_frac 0.0733410528850342 0.6334783089190382 0.6315136567369707 C
atom_frac 0.7792321734840257 0.2367706882049276 0.3294307980720177 C
atom_frac 0.2207592916181867 0.7632298242696860 0.6705690561399325 C
atom_frac 0.7315912016863705 0.0828443526928453 0.3838398819708290 C
atom_frac 0.2684025828481396 0.9171561518039583 0.6161598827666738 C
atom_frac 0.5775615685424854 0.0081940939428478 0.3152707138624181 C
atom_frac 0.4224368548565919 0.9918063945983279 0.6847288719261757 C
atom_frac 0.4696272142200756 0.8449580561217758 0.3291032517000616 C
atom_frac 0.5303687038223472 0.1550436288466770 0.6708979285578851 C
atom_frac 0.3774591760718735 0.0974236353433540 0.1315228076504056 C
atom_frac 0.6225465632625674 0.9025744488148107 0.8684751140033954 C
atom_frac 0.5832511300981693 0.0064234647876305 0.0496761795831446 C
atom_frac 0.4167611956843870 0.9935769723360299 0.9503244836370897 C
atom_frac 0.1606552702789443 0.6169830767476370 0.1032185989589891 I
atom_frac 0.8393501043118761 0.3830173860847736 0.8967815255454215 I
atom_frac 0.6618623482343083 0.2564042721031186 0.2314530814720755 N
atom_frac 0.3381410716678417 0.7435938200328566 0.7685449296561799 N
atom_frac 0.5365210621206203 0.1167784506174527 0.2251726509872044 N
atom_frac 0.4634800312441245 0.8832196477210204 0.7748262567546789 N
