#=======================================================
# FHI-aims file: geometry_Cu2H8C12S2N4Cl2.in
# Created using the Atomic Simulation Environment (ASE)
# Wed Dec  8 17:56:10 2021
#=======================================================
lattice_vector -3.6638942729999999 0.0035439650000000 -0.7016834330000000 
lattice_vector -3.7227022729999999 0.0235643210000000 9.3920655499999999 
lattice_vector -2.3107231700000002 9.6155381119999994 2.0669429890000002 
atom_frac 0.3106895744290837 0.1913035556793474 0.1915244853878306 Cu
atom_frac 0.3107601539297706 0.6915188138856153 0.6912939690070630 Cu
atom_frac 0.8625233399131249 0.4271998420813858 0.3415717908873788 H
atom_frac 0.3656028932128237 0.3424571726602679 0.4280753190775998 H
atom_frac 0.3656713236380819 0.9280657886713685 0.8424619339155440 H
atom_frac 0.8626087322632399 0.8415683208790983 0.9271922023439598 H
atom_frac 0.5011665176285192 0.6547177021776207 0.3605753380538275 H
atom_frac 0.4767822282356279 0.3614036615592155 0.6555445982489942 H
atom_frac 0.4768307370447357 0.1555375213688492 0.8614198078149048 H
atom_frac 0.5012022552655538 0.8605805489096029 0.1547146652761953 H
atom_frac 0.0633500138315666 0.5040849864251558 0.1224525404217758 C
atom_frac 0.3106563548594181 0.1231238357535318 0.5047141052986248 C
atom_frac 0.3106631455563473 0.0047065380099838 0.6231391363147125 C
atom_frac 0.0633881849970806 0.6224578293142002 0.0040754410138675 C
atom_frac 0.8586505487050504 0.5164834573002324 0.2519345628203524 C
atom_frac 0.3707912949547064 0.2526761666910887 0.5172068092706041 C
atom_frac 0.3708130249554317 0.0172241454900828 0.7526734221242037 C
atom_frac 0.8587288723670098 0.7519125198548906 0.0164804491547201 C
atom_frac 0.6593422643478352 0.6439159062477557 0.2609453411503750 C
atom_frac 0.4315921842458009 0.2617001001747782 0.6446944097181841 C
atom_frac 0.4316106345833787 0.1446834810770880 0.7616839467242827 C
atom_frac 0.6593814666094676 0.7609399859280543 0.1439172852264505 C
atom_frac 0.4629904764407869 0.4289849125010080 0.9289943355979132 S
atom_frac 0.1837880080967975 0.9295790192803968 0.4295686539031962 S
atom_frac 0.2774045932763373 0.3880308072066398 0.0933066038407162 N
atom_frac 0.2439775214629805 0.0938930259504644 0.3886732893436218 N
atom_frac 0.2440081925156862 0.8886828022497825 0.5938912591443994 N
atom_frac 0.2774425898779352 0.5933029616646479 0.8880247649454776 N
atom_frac 0.9054747322965327 0.0968230811777957 0.0990438026434290 Cl
atom_frac 0.9055367857707425 0.5990423140965364 0.5967970504720340 Cl
