#=======================================================
# FHI-aims file: geometry_Cu4H16C20Br4N4.in
# Created using the Atomic Simulation Environment (ASE)
# Wed Dec  8 17:56:10 2021
#=======================================================
lattice_vector 3.8495458720000002 0.0258841260000000 0.0653991040000000 
lattice_vector -1.4255725150000000 9.2708408329999994 -3.3226659299999999 
lattice_vector 0.2325170250000000 -0.2153408860000000 15.8797387840000006 
atom_frac 0.1143398999389191 0.8299111253779969 0.2898359826202749 Cu
atom_frac 0.8856657885359813 0.1700893359900491 0.7101570401207907 Cu
atom_frac 0.5774641176226752 0.6652282625654065 0.1911968256602350 Cu
atom_frac 0.4225108850923577 0.3347669564435022 0.8087990049490087 Cu
atom_frac 0.1662558773567966 0.0862521724239329 0.4602635011006483 H
atom_frac 0.8337499814375138 0.9137583670915107 0.5397454838159774 H
atom_frac 0.9979689131452647 0.3333820316022980 0.5088365089154364 H
atom_frac 0.0021062679170285 0.6666388960666011 0.4911636586489293 H
atom_frac 0.7532250537837442 0.4187346503031080 0.3943462293570192 H
atom_frac 0.2468221354391248 0.5812809830933575 0.6056548349187308 H
atom_frac 0.8620131189215672 0.0000657247604252 0.1969518225929363 H
atom_frac 0.1379897062219655 0.9999361228098067 0.8030540966541081 H
atom_frac 0.8305714062304477 0.4887473765943470 0.2791283717637398 H
atom_frac 0.1694078492501632 0.5112457357300713 0.7208701491960595 H
atom_frac 0.4425125171183098 0.0418294304297362 0.1257914458419549 H
atom_frac 0.5574637225537348 0.9581626214257213 0.8742074953796147 H
atom_frac 0.2236532204233583 0.1305923616539602 0.0102166712419063 H
atom_frac 0.7763385932124650 0.8693996450096293 0.9897821963839488 H
atom_frac 0.2942745541205199 0.3952392756859808 0.0390889794721048 H
atom_frac 0.7057147293612119 0.6047527089220425 0.9609086344924760 H
atom_frac 0.0579569749488229 0.1256570343787473 0.4121211376195220 C
atom_frac 0.9420707842058320 0.8743554477387645 0.5878812365053461 C
atom_frac 0.9675301656687482 0.2647743038587151 0.4383473209053435 C
atom_frac 0.0325050585796659 0.7352370432806055 0.5616535255266440 C
atom_frac 0.8330077751440473 0.3113497793071076 0.3745964227000299 C
atom_frac 0.1670288825810076 0.6886583119161144 0.6254037365626246 C
atom_frac 0.7907280945342946 0.2168471615685448 0.2849566877907463 C
atom_frac 0.2092756364116468 0.7831567924160010 0.7150471495374403 C
atom_frac 0.8866274213113672 0.0788812116042195 0.2650900831958438 C
atom_frac 0.1133758567333701 0.9211216891731698 0.7349147950917682 C
atom_frac 0.6907950695066561 0.4047015518204589 0.2218078475577627 C
atom_frac 0.3091833456780862 0.5952894245020914 0.7781914893936699 C
atom_frac 0.6542578207405968 0.2588176090601805 0.2134371744113253 C
atom_frac 0.3457142915343710 0.7411777506246864 0.7865643651363712 C
atom_frac 0.4844999706075016 0.1570464239692909 0.1352425860146553 C
atom_frac 0.5154843779345557 0.8429467176724899 0.8647578093040734 C
atom_frac 0.3593131713599433 0.2055101665144576 0.0712941745757547 C
atom_frac 0.6406738383492867 0.7944829380078032 0.9287049425497995 C
atom_frac 0.3986832997715126 0.3535689319563317 0.0866108650929931 C
atom_frac 0.6012998865865528 0.6464209613013240 0.9133888553223528 C
atom_frac 0.1299560748700229 0.7471837788246061 0.1203472614057617 Br
atom_frac 0.8699925332485637 0.2528028160268931 0.8796456139274652 Br
atom_frac 0.5253110219912855 0.7434804400618304 0.3621515653298886 Br
atom_frac 0.4747038720310855 0.2565243890642108 0.6378448523389507 Br
atom_frac 0.0195128875471013 0.0338578353310481 0.3263461837154081 N
atom_frac 0.9804966784963511 0.9661483283540523 0.6736606108709040 N
atom_frac 0.5603388943734730 0.4521281119848410 0.1612403734650059 N
atom_frac 0.4396299457113456 0.5478650452612610 0.8387588295222200 N
