#=======================================================
# FHI-aims file: geometry_Cu3P2H24C38N4O10.in
# Created using the Atomic Simulation Environment (ASE)
# Wed Dec  8 17:56:10 2021
#=======================================================
lattice_vector 8.2528503810000000 0.1020287730000000 -1.2314254309999999 
lattice_vector -0.5180548200000000 9.5160046569999999 -2.0492221320000001 
lattice_vector 0.1246909350000000 0.3310154010000000 11.4883583450000000 
atom_frac 0.8416866844215106 0.0007472147482019 0.7995194196852040 Cu
atom_frac 0.1583241550455341 0.9992444591597265 0.2004784480678694 Cu
atom_frac 0.5000063458744251 0.9999961890652285 0.0000037185921613 Cu
atom_frac 0.8455516222881699 0.8506052744231881 0.0281426566915570 P
atom_frac 0.1544553883836883 0.1493832912360773 0.9718551166731260 P
atom_frac 0.6847406883319352 0.6936552637622454 0.1722579289662889 H
atom_frac 0.3152598750812317 0.3063441994010319 0.8277306517958679 H
atom_frac 0.6067779503339921 0.4417129092083342 0.1503225801885577 H
atom_frac 0.3932273164876606 0.5582871395946893 0.8496779249929676 H
atom_frac 0.8113686684001848 0.3507044443531910 0.8241970729843118 H
atom_frac 0.1886175261569321 0.6492792886224591 0.1757949957589275 H
atom_frac 0.8890913860704828 0.6049595146287602 0.8442795635681790 H
atom_frac 0.1108973005022662 0.3950243330177158 0.1557084405140188 H
atom_frac 0.6012369597099152 0.7543738205230426 0.8148011865537869 H
atom_frac 0.3987537176810109 0.2456443126484799 0.1851974987934923 H
atom_frac 0.4136162552249516 0.5913118002942853 0.6629099280098032 H
atom_frac 0.5863462505885266 0.4087231165436124 0.3370983063313773 H
atom_frac 0.3913224508903994 0.6113440755933368 0.4464166309673558 H
atom_frac 0.6086632723137484 0.3886738879916720 0.5535884566669864 H
atom_frac 0.8417273024806776 0.1410116695757394 0.3196887257616794 H
atom_frac 0.1582656551146968 0.8590052360086916 0.6803143372609527 H
atom_frac 0.0076947260454574 0.2945929853058474 0.4965228081730473 H
atom_frac 0.9923063020105545 0.7054175079981775 0.5034808465776096 H
atom_frac 0.0041675755924118 0.2395702915724627 0.7031478788913149 H
atom_frac 0.9958376137182299 0.7604286838707778 0.2968532969690045 H
atom_frac 0.6401287769328192 0.9352635468923934 0.2449317413396485 H
atom_frac 0.3598718847132076 0.0647388674520855 0.7550625990437112 H
atom_frac 0.4744720522119650 0.7474302616769747 0.2907428098463924 H
atom_frac 0.5255416904474187 0.2525696954940244 0.7092577170604031 H
atom_frac 0.7897362381095832 0.6660601895500164 0.0085866549508680 C
atom_frac 0.2102636546491752 0.3339287491584599 0.9914025879766868 C
atom_frac 0.7141649037537975 0.6185092564804079 0.0963630876049777 C
atom_frac 0.2858316132533929 0.3814839082324398 0.9036265472876652 C
atom_frac 0.6717373330648186 0.4780033900982872 0.0850443145755264 C
atom_frac 0.3282615922241662 0.5219915579638224 0.9149537305786382 C
atom_frac 0.7038453249002999 0.3812653774595133 0.9855264035314236 C
atom_frac 0.2961534453666630 0.6187274238830371 0.0144729829803438 C
atom_frac 0.6455301529561553 0.2322538548296365 0.9675640028433250 C
atom_frac 0.3544755773020897 0.7677355027722185 0.0324416085544001 C
atom_frac 0.7830755236016032 0.4277204993605253 0.8992436619329994 C
atom_frac 0.2169134489703097 0.5722694299137813 0.1007506802865379 C
atom_frac 0.8261031392329912 0.5686167833358409 0.9107242477226974 C
atom_frac 0.1738883701212828 0.4313733502419979 0.0892634392832719 C
atom_frac 0.5897330385477204 0.7619152785621708 0.7207849602211455 C
atom_frac 0.4102584479679265 0.2380983645463033 0.2792217154096406 C
atom_frac 0.4846570450145719 0.6699825062482815 0.6340925110132503 C
atom_frac 0.5153280029417999 0.3300448062799787 0.3659159127412793 C
atom_frac 0.4717359373389272 0.6815492072919014 0.5150634382988885 C
atom_frac 0.5282545850299839 0.3184667791600688 0.4849365884059935 C
atom_frac 0.5623023084974648 0.7878971971746510 0.4820488333039421 C
atom_frac 0.4376994217509990 0.2121030829693282 0.5179461113827558 C
atom_frac 0.6624416783092357 0.8772110557709211 0.5754336381770599 C
atom_frac 0.3375636660234278 0.1227900663918788 0.4245661963256637 C
atom_frac 0.7529230618236084 0.9902417979515117 0.5492633346570344 C
atom_frac 0.2470860636377168 0.0097614188553123 0.4507355378778612 C
atom_frac 0.7462409495817114 0.0109230693815121 0.4299738683416265 C
atom_frac 0.2537669551549656 0.9890810588781779 0.5700293881562786 C
atom_frac 0.8413690187996038 0.1234554187734815 0.4108081103794419 C
atom_frac 0.1586256975682190 0.8765500335447670 0.5891913573088416 C
atom_frac 0.9323782991666789 0.2074796182370732 0.5081140402516482 C
atom_frac 0.0676211297322595 0.7925246016546409 0.4918891945209793 C
atom_frac 0.9312361224545143 0.1791173828328354 0.6239445996827726 C
atom_frac 0.0687703858136359 0.8208836323387415 0.3760579518357403 C
atom_frac 0.6450788533474139 0.9189207851629037 0.3369297160901681 C
atom_frac 0.3549277025872614 0.0810812436133119 0.6630738917845633 C
atom_frac 0.5558972072989476 0.8122603737008304 0.3624876390312650 C
atom_frac 0.4441080267784159 0.1877386913751238 0.6375109462765280 C
atom_frac 0.6768862185473380 0.8624023932815419 0.6916383294984101 N
atom_frac 0.3231156874449965 0.1376019114034222 0.3083617041306894 N
atom_frac 0.8441193543521024 0.0725802127894610 0.6432688462715177 N
atom_frac 0.1558882465633573 0.9274168799929043 0.3567252886978025 N
atom_frac 0.8911483890501301 0.8717321758746476 0.9074495540598377 O
atom_frac 0.1088601581900264 0.1282616197147206 0.0925484464441553 O
atom_frac 0.9896425540623852 0.8627553871564260 0.1294613553887557 O
atom_frac 0.0103629349634105 0.1372279784503050 0.8705353273191037 O
atom_frac 0.7063916237454677 0.9385762835312974 0.0719345512814584 O
atom_frac 0.2936203498125849 0.0614152236302630 0.9280677605224169 O
atom_frac 0.5842367011245528 0.1950288704294536 0.0545153093543504 O
atom_frac 0.4157848732396019 0.8049641964200090 0.9454996255606289 O
atom_frac 0.6512890550505334 0.1514692589093656 0.8687740896713763 O
atom_frac 0.3487102590638358 0.8485148485637241 0.1312333792865559 O
