#=======================================================
# FHI-aims file: geometry_Cu4P4H40C28S8N4O8.in
# Created using the Atomic Simulation Environment (ASE)
# Wed Dec  8 17:56:10 2021
#=======================================================
lattice_vector 5.6796466260000003 -0.0000159040000000 0.0000136200000000 
lattice_vector -0.0000339300000000 9.2121618170000001 -1.7460307420000001 
lattice_vector 0.0000615540000000 -0.4290111700000000 20.3639460939999992 
atom_frac 0.0405498890768570 0.2755026271589928 0.8172844019232386 Cu
atom_frac 0.5405381347164137 0.2244925659899907 0.6827170674713158 Cu
atom_frac 0.9594599267259126 0.7245055313569541 0.1827153659452279 Cu
atom_frac 0.4594487922143031 0.7754994280709938 0.3172852429631304 Cu
atom_frac 0.5579654196703528 0.5041664836657987 0.8235551450913974 P
atom_frac 0.0579582097507938 0.9958308210777032 0.6764479916837230 P
atom_frac 0.4420479174082458 0.4958330706720278 0.1764463403612950 P
atom_frac 0.9420357599057565 0.0041721635712761 0.3235572253488925 P
atom_frac 0.9678492345326145 0.4044138368535712 0.6836659135348953 H
atom_frac 0.4678570991415754 0.0955882602758891 0.8163355762221512 H
atom_frac 0.0321464958489130 0.5955889181926823 0.3163343731705197 H
atom_frac 0.5321544771715093 0.9043961047134418 0.1836660800694574 H
atom_frac 0.1867687388577081 0.5245548810151706 0.6069573326934971 H
atom_frac 0.6867747913872718 0.9754480590140209 0.8930407132509687 H
atom_frac 0.8132269915463937 0.4754544591924630 0.3930445007599843 H
atom_frac 0.3132226996193879 0.0245315102069839 0.1069512016395322 H
atom_frac 0.6497771308608336 0.3727725331501830 0.4574719167732296 H
atom_frac 0.1497842654906236 0.1272056181205556 0.0425311909457022 H
atom_frac 0.3502238814159071 0.6272162831569404 0.5425320854429573 H
atom_frac 0.8502290714369493 0.8727745481022854 0.9574735427848464 H
atom_frac 0.4529516790670413 0.2600073668251568 0.5417405170637223 H
atom_frac 0.9529535047423678 0.2399870963884325 0.9582613202114272 H
atom_frac 0.5470475726099551 0.7399822408649116 0.4582571691763490 H
atom_frac 0.0470510289675943 0.7600169322307552 0.0417430041975422 H
atom_frac 0.9292424210637049 0.7355380147294144 0.7534079720367116 H
atom_frac 0.4292326869111206 0.7644395937226139 0.7465875776096238 H
atom_frac 0.0707603519628819 0.2644460058363549 0.2465862887700752 H
atom_frac 0.5707577613792977 0.2355456544589813 0.2534097348465140 H
atom_frac 0.0303630599647065 0.6364850920733430 0.8146482045995852 H
atom_frac 0.5303669948463678 0.8635231093032660 0.6853578676376771 H
atom_frac 0.9696291490571127 0.3635244088522995 0.1853570800841311 H
atom_frac 0.4696252141925327 0.1364918869103847 0.3146488703469714 H
atom_frac 0.8083011445759779 0.7760626399071955 0.8360662584424360 H
atom_frac 0.3083120854192600 0.7239328780830123 0.6639265689792068 H
atom_frac 0.1916734577660932 0.2239366158772569 0.1639288176063403 H
atom_frac 0.6916977304234138 0.2760684197446893 0.3360657357496564 H
atom_frac 0.2560276636227811 0.7460561378856241 0.9529490686791318 H
atom_frac 0.7560192016647134 0.7539440437916270 0.5470545408931712 H
atom_frac 0.7439839128963115 0.2539585139524121 0.0470502738059650 H
atom_frac 0.2439923748419232 0.2460628641299465 0.4529416822988424 H
atom_frac 0.4569441206697319 0.6069930474336690 0.9660142590544679 H
atom_frac 0.9569904234845195 0.8929950153278412 0.5339939353998558 H
atom_frac 0.5430093534654077 0.3930001053254629 0.0339896239424817 H
atom_frac 0.0430510842812168 0.1069993192967901 0.4660120131287114 H
atom_frac 0.1756521052905171 0.5577177746015138 0.9266042986134195 H
atom_frac 0.6756734934624048 0.9422926419221229 0.5733919479154252 H
atom_frac 0.8243136938391586 0.4423053206187222 0.0733898750811477 H
atom_frac 0.3243451259045500 0.0577213211107406 0.4265926035871387 H
atom_frac 0.9017364934515300 0.4010366495158736 0.6331773801381004 C
atom_frac 0.4017591501726443 0.0989604957201138 0.8668159164402881 C
atom_frac 0.0982609977354016 0.5989744341906303 0.3668152725887949 C
atom_frac 0.5982841184120744 0.9010343088454461 0.1331768136535274 C
atom_frac 0.0233147696020808 0.4693377346288019 0.5892732056991149 C
atom_frac 0.5233415346287273 0.0306673006178855 0.9107310948542349 C
atom_frac 0.9766756786921318 0.5306619803940651 0.4107317309939376 C
atom_frac 0.4767017339074399 0.9693410875607220 0.0892736033230221 C
atom_frac 0.9380149588685993 0.4642901775528261 0.5240453936674072 C
atom_frac 0.4380151268985130 0.0357029612535342 0.9759524215210362 C
atom_frac 0.0619878142332553 0.5357224782080581 0.4759577061890496 C
atom_frac 0.5619823640555026 0.9642746119052962 0.0240432507362200 C
atom_frac 0.7280332981710842 0.3854306581910692 0.5070684146693837 C
atom_frac 0.2280358012190220 0.1145812687333603 0.9929288369986294 C
atom_frac 0.2719483468227182 0.6145554043220544 0.4929230748469494 C
atom_frac 0.7719528865961178 0.8854421020526860 0.0070712530755159 C
atom_frac 0.6164391932030070 0.3206518896898062 0.5539186564779045 C
atom_frac 0.1164857415936140 0.1793296461075116 0.9460869420684828 C
atom_frac 0.3835389302826826 0.6793315460932168 0.4460863576124580 C
atom_frac 0.8835786548619212 0.8206616026205327 0.0539226703677400 C
atom_frac 0.8788864333573938 0.6892408104651015 0.7963752996801573 C
atom_frac 0.3788869871086362 0.8107508638219302 0.7036229965329355 C
atom_frac 0.1211075363503369 0.3107586060763269 0.2036232275868883 C
atom_frac 0.6211105039122344 0.1892431263192051 0.2963755565292274 C
atom_frac 0.3218482242374989 0.6360935457618667 0.9325434478394354 C
atom_frac 0.8218459159107352 0.8639064926180924 0.5674522043734883 C
atom_frac 0.6781439848832348 0.3639155189129114 0.0674524692243423 C
atom_frac 0.1781568572469254 0.1361003464067707 0.4325425397252404 C
atom_frac 0.3242342549535948 0.3798997028664958 0.7618971329226979 S
atom_frac 0.8242535056096826 0.1201061041685350 0.7381014295788191 S
atom_frac 0.6757544327585449 0.6201085244952014 0.2381041140546998 S
atom_frac 0.1757615921910228 0.8799021461986883 0.2619003104174027 S
atom_frac 0.7643679394341305 0.4186796581937458 0.8840623060217891 S
atom_frac 0.2643641311333980 0.0813085988779818 0.6159367960753954 S
atom_frac 0.2356436369678007 0.5813254832713783 0.1159426048632639 S
atom_frac 0.7356280778259006 0.9186811236029587 0.3840633553314987 S
atom_frac 0.6990246798467296 0.3276527551767857 0.6165785454629072 N
atom_frac 0.1990144006639696 0.1723508820831157 0.8834293287219237 N
atom_frac 0.3009780933147325 0.6723685506893561 0.3834238228727429 N
atom_frac 0.8009707655062002 0.8276448408064286 0.1165831227074108 N
atom_frac 0.6970384781288741 0.5830538977060727 0.7723709571499952 O
atom_frac 0.1970415409485682 0.9169349778053835 0.7276273423412433 O
atom_frac 0.3029642948951262 0.4169401613257692 0.2276290750072931 O
atom_frac 0.8029471466747252 0.0830524730805351 0.2723706500427169 O
atom_frac 0.4221298500361426 0.6430529712765678 0.8681855876835128 O
atom_frac 0.9220908500441778 0.8569455501133593 0.6318166752381843 O
atom_frac 0.5778905297763615 0.3569486250565603 0.1318131264639958 O
atom_frac 0.0778591028640463 0.1430637900163632 0.3681851582392355 O
