#=======================================================
# FHI-aims file: geometry_Cu2H36C48Br2N12O6.in
# Created using the Atomic Simulation Environment (ASE)
# Wed Dec  8 17:56:10 2021
#=======================================================
lattice_vector 8.5283290540000003 0.0000000000000000 -2.0480570000000000 
lattice_vector -1.0350567170000000 11.3991524329999994 -1.5787519999999999 
lattice_vector 0.0000000000000000 0.0000000000000000 12.5909999999999993 
atom_frac 0.0767754385352646 0.0090006691815958 0.7527972598516399 Cu
atom_frac 0.9232441937058907 0.9910087672217358 0.2472014777934675 Cu
atom_frac 0.6570360380482611 0.4180152891197011 0.8259439068148140 H
atom_frac 0.3429473553960635 0.5819660750210787 0.1740589180146159 H
atom_frac 0.5465080227864263 0.8520694899983710 0.1469856241043459 H
atom_frac 0.4534967934124339 0.1479338055975248 0.8530107277960894 H
atom_frac 0.8190980921656887 0.7599758009131251 0.3650435149701964 H
atom_frac 0.1809206883147212 0.2400266174245687 0.6349549983686771 H
atom_frac 0.6384528158221769 0.5793167552424805 0.8944726586122513 H
atom_frac 0.3615392100493792 0.4206777677713660 0.1055300434549054 H
atom_frac 0.8777375674318151 0.4263001156061464 0.1766903922845771 H
atom_frac 0.1222417745825268 0.5736865120838601 0.8233100508658213 H
atom_frac 0.6308351389657219 0.7320754809665930 0.2225202090327798 H
atom_frac 0.3691771384893343 0.2679313236621256 0.7774841502515528 H
atom_frac 0.2968020817687176 0.8623255156710812 0.8636427379634455 H
atom_frac 0.7032089166536082 0.1376804116994279 0.1363557437491991 H
atom_frac 0.0746123056703141 0.1455266090834613 0.9791891573392065 H
atom_frac 0.9253769491955880 0.8544644048975698 0.0208110655706051 H
atom_frac 0.2308811137823028 0.1484847237501654 0.1725516826177156 H
atom_frac 0.7691047298657877 0.8515071674890748 0.8274496838553278 H
atom_frac 0.4211491046814473 0.9971802786927455 0.2125452887962282 H
atom_frac 0.5788520873594152 0.0028221396449482 0.7874567173449095 H
atom_frac 0.9853940204631826 0.8767388679764991 0.5224419317499313 H
atom_frac 0.0146352066108548 0.1232626731029853 0.4775581708388899 H
atom_frac 0.0070656455050937 0.7828152182759709 0.8319499591946524 H
atom_frac 0.9929388485002804 0.2172047452258141 0.1680531955506055 H
atom_frac 0.8599964191793603 0.5893517118475771 0.7492186387147939 H
atom_frac 0.1400010394501976 0.4106682516542152 0.2507881369620222 H
atom_frac 0.7751690667241106 0.5362284639956627 0.5416942413849455 H
atom_frac 0.2248344690504211 0.4637836041822824 0.4583117386109096 H
atom_frac 0.5512415910016487 0.3033260604525481 0.6561560498557456 H
atom_frac 0.4487479846661344 0.6966579354628381 0.3438409626049720 H
atom_frac 0.5776439478212723 0.1312562498654302 0.5185306010507915 H
atom_frac 0.4223602309486197 0.8687321323409807 0.4814629829968667 H
atom_frac 0.8043032859761752 0.0130167572433209 0.5634778180047563 H
atom_frac 0.1957197588744037 0.9869821520615505 0.4365161836813983 H
atom_frac 0.9978318775645364 0.2369421775763669 0.8586339050434618 H
atom_frac 0.0021562033471270 0.7630584862449155 0.1413641600059279 H
atom_frac 0.6233979536146705 0.6621790562382586 0.0522024503280463 C
atom_frac 0.3765988689775241 0.3378163440337971 0.9477979651002715 C
atom_frac 0.6756569728503620 0.5761954705496849 0.9829817921027911 C
atom_frac 0.3243435803699271 0.4238016842387822 0.0170178617089221 C
atom_frac 0.7695701524479689 0.4921155351655955 0.0274284745521315 C
atom_frac 0.2304131331346611 0.5078746015572264 0.9725706673946494 C
atom_frac 0.8104167101232420 0.4942051642095109 0.1419694231983897 C
atom_frac 0.1895701996173926 0.5057858497715202 0.8580312124705146 C
atom_frac 0.7630056236427762 0.5814879692994452 0.2121224924984801 C
atom_frac 0.2369890667643304 0.4185091854890218 0.7878793845381084 C
atom_frac 0.6690090431714210 0.6651222575154777 0.1669185726493226 C
atom_frac 0.3309921488694343 0.3348801608222161 0.8330818450556309 C
atom_frac 0.5115818078709751 0.7422858892126528 0.9973309534468343 C
atom_frac 0.4884191712296939 0.2577147746086297 0.0026668269727637 C
atom_frac 0.3700299860539431 0.9164111157736985 0.0412475883565762 C
atom_frac 0.6299701398943751 0.0835921798221975 0.9587535601525163 C
atom_frac 0.2820870069497162 0.9225685911134249 0.9339494303510349 C
atom_frac 0.7179250575651466 0.0774364589988821 0.0660507032117437 C
atom_frac 0.1600041911059478 0.0818780172899523 0.9984713515349384 C
atom_frac 0.8399904993011661 0.9181191374985076 0.0015281428473770 C
atom_frac 0.2456962849878011 0.0823131373595487 0.1064746268426617 C
atom_frac 0.7542899845406622 0.9176822629125000 0.8935264546744507 C
atom_frac 0.3511571109756204 0.9988277696014194 0.1289032736198196 C
atom_frac 0.6488381117819628 0.0011737714780651 0.8710984457763760 C
atom_frac 0.8086677122481660 0.5774604768810506 0.3341310818474099 C
atom_frac 0.1913383829834245 0.4225436959730473 0.6658735302789864 C
atom_frac 0.8726349024698976 0.7034373868697941 0.5165855930302004 C
atom_frac 0.1273853699834220 0.2965676632425129 0.4834150814209793 C
atom_frac 0.9536316732695411 0.8114866481845554 0.5704215862644801 C
atom_frac 0.0463827363706031 0.1885184019277517 0.4295789287573016 C
atom_frac 0.9647245783785862 0.7594933089004670 0.7425917326847371 C
atom_frac 0.0352781042435879 0.2405213910520914 0.2574104674377793 C
atom_frac 0.8837849151973884 0.6509001474987103 0.6954850124476480 C
atom_frac 0.1162143562069673 0.3491154297120573 0.3045199196742844 C
atom_frac 0.8359727372253687 0.6211742532279204 0.5810578914236901 C
atom_frac 0.1640363419520625 0.3788351831754114 0.4189446891825811 C
atom_frac 0.8293102658788598 0.3962592856398218 0.9598602045053966 C
atom_frac 0.1706781358346916 0.6037343601158227 0.0401370327491648 C
atom_frac 0.7713236219664807 0.2810200160782443 0.7702816023872074 C
atom_frac 0.2286657393695180 0.7189718751609960 0.2297171594019574 C
atom_frac 0.6530590374704275 0.2523556042352979 0.6719330512272493 C
atom_frac 0.3469307511375490 0.7476301461964994 0.3280673927369194 C
atom_frac 0.6662251954044578 0.1563660114623886 0.5961123285166181 C
atom_frac 0.3337821802514682 0.8436293888096671 0.4038786844239013 C
atom_frac 0.7938945204478357 0.0901242444153922 0.6207096387089309 C
atom_frac 0.2061191439016454 0.9098746648894790 0.3792860140136085 C
atom_frac 0.9009432874737227 0.2136992214392991 0.7861497323293849 C
atom_frac 0.0990457530603948 0.7862996878655722 0.2138522399088814 C
atom_frac 0.2965664302080667 0.0563892801485082 0.6656976921742270 Br
atom_frac 0.7034372134281598 0.9436140154473878 0.3342952921243453 Br
atom_frac 0.9101675438290826 0.1181658029329000 0.7140258523567554 N
atom_frac 0.0898398304352384 0.8818392471794072 0.2859727240699428 N
atom_frac 0.7542433691885861 0.3746129394355506 0.8489178253776544 N
atom_frac 0.2457356534154727 0.6253710564798425 0.1510822358261309 N
atom_frac 0.4786907190864085 0.8344102823350710 0.0670679676051975 N
atom_frac 0.5213130310199077 0.1655938905190339 0.9329314977536499 N
atom_frac 0.1790097453798367 0.0041292543701559 0.9133254888959429 N
atom_frac 0.8209973094742009 0.9958731639675379 0.0866758824565039 N
atom_frac 0.8300206830263193 0.6848798668047423 0.4007469724004907 N
atom_frac 0.1699922346409011 0.3151225515329514 0.5992545583813610 N
atom_frac 0.9968150172156242 0.8403563384474282 0.6810085159042316 N
atom_frac 0.0031941684318966 0.1596539752141055 0.3189902209271196 N
atom_frac 0.9370108445174451 0.3396594635221533 0.0021888393729199 O
atom_frac 0.0629705218202830 0.6603341822334912 0.9978104303770295 O
atom_frac 0.4514465437166351 0.7220712283986686 0.8966896711906571 O
atom_frac 0.5485401516922082 0.2779276809062027 0.1033119195886201 O
atom_frac 0.8261487385754763 0.4833341805352092 0.3695405060177138 O
atom_frac 0.1738478696849342 0.5166691150606866 0.6304648356114342 O
