#=======================================================
# FHI-aims file: geometry_Cu4H64C80N24O16.in
# Created using the Atomic Simulation Environment (ASE)
# Wed Dec  8 17:56:10 2021
#=======================================================
lattice_vector 9.1310168399999991 -0.0000130120000000 -1.3155819280000001 
lattice_vector 0.0000625710000000 10.7731165640000004 0.0000515620000000 
lattice_vector 0.1861435400000000 -0.0000544290000000 21.0014358869999995 
atom_frac 0.9427815428995316 0.3115305401252684 0.0469334716948069 Cu
atom_frac 0.5572264503763550 0.8115267163932386 0.4530649835170594 Cu
atom_frac 0.0572093409852172 0.6884769671698689 0.9530680751335437 Cu
atom_frac 0.4427819824070767 0.1884687238421350 0.5469352818577775 Cu
atom_frac 0.9438358026687724 0.9632405387174852 0.1896338745507862 H
atom_frac 0.5561666441910164 0.4632553728079143 0.3103734875440338 H
atom_frac 0.0561781767048188 0.0367289108851310 0.8103629290766464 H
atom_frac 0.4438340351774243 0.5367502780411824 0.6896310536918122 H
atom_frac 0.0767460607804011 0.8765798439770620 0.2909882241042752 H
atom_frac 0.4232616723910922 0.3766075359817690 0.2090159935727129 H
atom_frac 0.9232698830049698 0.1234128115963529 0.7090196541539271 H
atom_frac 0.5767608823129747 0.6234120384481585 0.7909899179541141 H
atom_frac 0.9913846785994523 0.6810258822239985 0.3364456930384847 H
atom_frac 0.5086085260522069 0.1810511850344554 0.1635600950535974 H
atom_frac 0.0086102604842466 0.3189769839742098 0.6635718210402786 H
atom_frac 0.4913999549451802 0.8189823128854098 0.8364377924584474 H
atom_frac 0.7753781975597603 0.5700360918229704 0.2787792312571327 H
atom_frac 0.7245991119075654 0.0700439343487460 0.2212213445815365 H
atom_frac 0.2246069750670046 0.4299769849425912 0.7212338617381704 H
atom_frac 0.2754119929485839 0.9299802811018761 0.7787552802119677 H
atom_frac 0.5525416893893293 0.5840508900086332 0.2044442946328715 H
atom_frac 0.9474565506256027 0.0840572371902155 0.2955408580063336 H
atom_frac 0.4474458744281052 0.4159529043450688 0.7955589488590320 H
atom_frac 0.0525555996304377 0.9159521264900474 0.7044382130996638 H
atom_frac 0.5335234849675600 0.6859690423593675 0.1379857311016011 H
atom_frac 0.9664700404661133 0.1859696093659551 0.3620010065564898 H
atom_frac 0.4664716965165709 0.3140282543600748 0.8620198942274302 H
atom_frac 0.0335376669117267 0.8140295437228952 0.6379811193671188 H
atom_frac 0.5877055909958030 0.8668804149512325 0.1122580460258007 H
atom_frac 0.9122827556336831 0.3668653311405520 0.3877536676084289 H
atom_frac 0.4122993180915770 0.1331178100484038 0.8877539025571221 H
atom_frac 0.0877189885425835 0.6331226832239095 0.6122523688466757 H
atom_frac 0.7359959324129122 0.9744799318375642 0.1160812391470216 H
atom_frac 0.7639911072948707 0.4744653793719209 0.3839222457411537 H
atom_frac 0.2640025594629662 0.0255182931162139 0.8839231650771072 H
atom_frac 0.2360129116181895 0.5255309891028472 0.6160796477673074 H
atom_frac 0.5832360833546274 0.3271809642524203 0.0197752183778590 H
atom_frac 0.9167697229773424 0.8271810681298033 0.4802125475058148 H
atom_frac 0.4167505708364132 0.6728302559461737 0.9802189211141155 H
atom_frac 0.0832499964476625 0.1728255108741550 0.5197712831797646 H
atom_frac 0.8940536769308308 0.5246058125420916 0.1457906891120047 H
atom_frac 0.6059508106384612 0.0246035733135059 0.3541965752793104 H
atom_frac 0.1059427049391317 0.4753951970987202 0.8542097736659500 H
atom_frac 0.3940546703994201 0.9753983644910631 0.6457873158056913 H
atom_frac 0.7103697986526001 0.6259396337860608 0.9442295994094392 H
atom_frac 0.7896203464538870 0.1259385357245364 0.5557831296363034 H
atom_frac 0.2896210173769305 0.3740669452893142 0.0557752762760018 H
atom_frac 0.2103594638917983 0.8740838233713787 0.4442243896925433 H
atom_frac 0.9706929225197738 0.8850332000340084 0.0587245766936348 H
atom_frac 0.5293017206599089 0.3850233014298609 0.4412883945390007 H
atom_frac 0.0293174748961462 0.1149529578947011 0.9412867634055573 H
atom_frac 0.4706880888612588 0.6149814211493305 0.5587121326795526 H
atom_frac 0.0801883632537326 0.3907629661774477 0.2561155457157085 H
atom_frac 0.4198028387194127 0.8907569763903569 0.2438842337395428 H
atom_frac 0.9197770827708781 0.6092408282026864 0.7438982162108729 H
atom_frac 0.5802089140493578 0.1092542438609313 0.7561143349369743 H
atom_frac 0.2039063174747753 0.3661570675213638 0.3695807576323205 H
atom_frac 0.2960643402294494 0.8661514888220265 0.1304226172803524 H
atom_frac 0.7960835019363940 0.6338188797239750 0.6304192941184965 H
atom_frac 0.7039209875913598 0.1338495208308004 0.8695828669396236 H
atom_frac 0.3270582158439269 0.9942510155690696 0.3275628699681262 H
atom_frac 0.1729215518237979 0.4942452450428688 0.1724447320532789 H
atom_frac 0.6729263188232721 0.0057369986969888 0.6724278037031722 H
atom_frac 0.8270891072365246 0.5057566928417712 0.8275537681334271 H
atom_frac 0.2008559610383074 0.0181260695284848 0.2139730617485185 H
atom_frac 0.2991326284423081 0.5181174293849863 0.2860293361465480 H
atom_frac 0.7991307223812851 0.9818638012234684 0.7860196511530617 H
atom_frac 0.7008703354457281 0.4818835802610406 0.7139705866294648 H
atom_frac 0.7384389341126649 0.7026778696247786 0.2018748007510425 C
atom_frac 0.7615507242388802 0.2026837937937600 0.2981292304474223 C
atom_frac 0.2615561503759736 0.2973268530105669 0.7981355800629046 C
atom_frac 0.2384633517770496 0.7973302111368880 0.7018628175453472 C
atom_frac 0.7841476274844296 0.8158845963812453 0.1774101732380799 C
atom_frac 0.7158436867740007 0.3158813749959321 0.3225976912517226 C
atom_frac 0.2158628959095950 0.1841089874083720 0.8225949846815226 C
atom_frac 0.2841614840334543 0.6841214911216438 0.6774014174507953 C
atom_frac 0.9067655717980969 0.8768561225592603 0.2098027587467115 C
atom_frac 0.5932370035291612 0.3768708423899838 0.2902026547823837 C
atom_frac 0.0932515724487715 0.1231291070975260 0.7901999569925025 C
atom_frac 0.4067713031437349 0.6231366649509552 0.7098037927158884 C
atom_frac 0.9818757265388527 0.8280646755180778 0.2663234692522991 C
atom_frac 0.5181286733586674 0.3280832839601543 0.2336789650395660 C
atom_frac 0.0181435470398768 0.1719270518118847 0.7336822368050876 C
atom_frac 0.4818763519933924 0.6719251516122781 0.7663272769063667 C
atom_frac 0.9343198433797751 0.7179981748541875 0.2916289777734420 C
atom_frac 0.5656695195313404 0.2180073601184276 0.2083792451033943 C
atom_frac 0.0656740309528629 0.2820139737001668 0.7083870411101287 C
atom_frac 0.4343455532543032 0.7820149989662896 0.7916176268881756 C
atom_frac 0.8136001008966715 0.6561652482455427 0.2593843480739366 C
atom_frac 0.6864011949795668 0.1561787638717504 0.2406173073961710 C
atom_frac 0.1863949351068470 0.3438413308747598 0.7406284104878154 C
atom_frac 0.3136172851743808 0.8438398822408929 0.7593735879975582 C
atom_frac 0.6119448907645831 0.6288251974393687 0.1688028016185044 C
atom_frac 0.8880548315425896 0.1288206224541781 0.3311869856244911 C
atom_frac 0.3880502228138809 0.3711785969523048 0.8312061525462227 C
atom_frac 0.1119550730538563 0.8711813153451046 0.6687948017735721 C
atom_frac 0.7071333477668986 0.8756254978515938 0.1167309091243567 C
atom_frac 0.7928581807301994 0.3756119368224660 0.3832800085691090 C
atom_frac 0.2928683672438694 0.1243745835945234 0.8832765539478800 C
atom_frac 0.2071435827720052 0.6243853599021989 0.6167250767579873 C
atom_frac 0.6318613169387675 0.3906456670554944 0.0566725624618698 C
atom_frac 0.8681412649625313 0.8906527065676995 0.4433232606282970 C
atom_frac 0.3681230721090785 0.6093720508143858 0.9433252443833169 C
atom_frac 0.1318728499133925 0.1093492312789053 0.5566668851967193 C
atom_frac 0.7919432973945462 0.4896834492761212 0.1207765533101011 C
atom_frac 0.7080536413509719 0.9896801719471848 0.3792146207325118 C
atom_frac 0.2080498806979918 0.5103203450500544 0.8792198995051096 C
atom_frac 0.2919429926391501 0.0103115552664761 0.6207734777557761 C
atom_frac 0.7460156103743785 0.6956615589414311 0.9802938663854376 C
atom_frac 0.7539692511610098 0.1956460867905959 0.5197162847302222 C
atom_frac 0.2539828039202376 0.3043403789774643 0.0197143422330441 C
atom_frac 0.2460052163998158 0.8043697746104073 0.4802847098763722 C
atom_frac 0.8811953565915046 0.8265568707592333 0.0376518096904732 C
atom_frac 0.6187990842546539 0.3265566836231172 0.4623566744025993 C
atom_frac 0.1188161830495318 0.1734320718686817 0.9623572211641046 C
atom_frac 0.3811919352963927 0.6734591777670359 0.5376382146928549 C
atom_frac 0.1328126732550032 0.2052965957310846 0.2283313099657605 C
atom_frac 0.3671931676105941 0.7052768360287514 0.2716660118197467 C
atom_frac 0.8671563740469138 0.7947007009196549 0.7716669643583886 C
atom_frac 0.6328405576721748 0.2947139630290038 0.7283291717403911 C
atom_frac 0.1349954466455046 0.3043136620897328 0.2718615007882547 C
atom_frac 0.3649947617914506 0.8043120219800953 0.2281376885976059 C
atom_frac 0.8649734844043521 0.6956715675152195 0.7281424801782279 C
atom_frac 0.6350059854637492 0.1956899159062715 0.7718635237945223 C
atom_frac 0.2033395467347106 0.2906801253111198 0.3348759048059478 C
atom_frac 0.2966441777821061 0.7906637598408467 0.1651281831295393 C
atom_frac 0.7966513179249971 0.7093032478398340 0.6651265931931860 C
atom_frac 0.7033610221971428 0.2093261109585781 0.8348694989585254 C
atom_frac 0.2712768135433521 0.1782578733161699 0.3549180028525853 C
atom_frac 0.2287227157326583 0.6782411412288667 0.1450847702159876 C
atom_frac 0.7287284445903097 0.8217338539419002 0.6450768259263455 C
atom_frac 0.7712933540938705 0.3217496578404705 0.8549169258893626 C
atom_frac 0.2729828380383096 0.0807566191760500 0.3108571794581749 C
atom_frac 0.2270004284327385 0.5807440411297263 0.1891493390425296 C
atom_frac 0.7270157411637683 0.9192304669182217 0.6891429448423594 C
atom_frac 0.7730026227310560 0.4192532555487886 0.8108463037885089 C
atom_frac 0.2034886562524676 0.0941933706379388 0.2482802209323154 C
atom_frac 0.2965131283496589 0.5941880904365887 0.2517221538560435 C
atom_frac 0.7964989464564878 0.9057937154492279 0.7517211204052002 C
atom_frac 0.7035030674928110 0.4058045650746607 0.7482733600857614 C
atom_frac 0.0534861213034787 0.2136790642354852 0.1611334755906171 C
atom_frac 0.4465293236169147 0.7136536775550012 0.3388705967227139 C
atom_frac 0.9464970868547554 0.7863191606877745 0.8388685427498571 C
atom_frac 0.5534976064885129 0.2863194850566585 0.6611355890040330 C
atom_frac 0.3408376007370392 0.1565654137203437 0.4228797384556060 C
atom_frac 0.1591326042898018 0.6565366880125934 0.0771255896372836 C
atom_frac 0.6591521311965635 0.8434439500604680 0.5771245931546291 C
atom_frac 0.8408638357787196 0.3434596804313728 0.9228720198502458 C
atom_frac 0.6577049697181748 0.5309387917076762 0.1273835470224682 N
atom_frac 0.8423026646562803 0.0309345247170398 0.3726062641900612 N
atom_frac 0.3422935705860722 0.4690659308896270 0.8726184794297894 N
atom_frac 0.1577039392870816 0.9690599871900357 0.6273762687809992 N
atom_frac 0.5539943001855575 0.4689619688122376 0.0871874056028474 N
atom_frac 0.9460040526479645 0.9689614621538919 0.4128020541325910 N
atom_frac 0.4459998843649018 0.5310511079021153 0.9128133956578637 N
atom_frac 0.0539938786288801 0.0310404756127127 0.5871761262795872 N
atom_frac 0.7785904720990401 0.4000461936369034 0.0761361716326476 N
atom_frac 0.7214120014130074 0.9000601079187615 0.4238586461753400 N
atom_frac 0.2213962014620917 0.5999678112664030 0.9238570167500411 N
atom_frac 0.2785988708507218 0.0999529687512606 0.5761293918654006 N
atom_frac 0.7501160136715938 0.8196163933974313 0.0584858491123228 N
atom_frac 0.7498752305834628 0.3195996041233257 0.4415229450170840 N
atom_frac 0.2498879179657081 0.1803836880448415 0.9415203243411199 N
atom_frac 0.2501124302420691 0.6803949078414744 0.5584755429952536 N
atom_frac 0.6622225848006451 0.7367088066132721 0.0226079817233611 N
atom_frac 0.8377687310562506 0.2366814533442252 0.4773993193893060 N
atom_frac 0.3377834665433780 0.2632875619030841 0.9774016576283058 N
atom_frac 0.1622166938104925 0.7633047045007114 0.5226014093671409 N
atom_frac 0.8818513155100547 0.7486325069043712 0.9881833396794163 N
atom_frac 0.6181382756990601 0.2486231245692635 0.5118277999107192 N
atom_frac 0.1181503995700837 0.2513573639402651 0.0118241234222296 N
atom_frac 0.3818481845892876 0.7513899521501488 0.4881758505885259 N
atom_frac 0.0517368307673465 0.3229462922678791 0.1355401317856959 O
atom_frac 0.4482826758301854 0.8229276660632008 0.3644598491429534 O
atom_frac 0.9482122377744205 0.6770565738435719 0.8644711757433471 O
atom_frac 0.5517454934264733 0.1770510659332558 0.6355392718248467 O
atom_frac 0.9956734916192005 0.1188105808824247 0.1337738972119880 O
atom_frac 0.5043336451811554 0.6187909001624730 0.3662349738642092 O
atom_frac 0.0043689353946661 0.8811755770181262 0.8662242122471114 O
atom_frac 0.4956538024409697 0.3811924730169520 0.6337739762940942 O
atom_frac 0.3187765471666282 0.2411307283797726 0.4647536617904250 O
atom_frac 0.1811990227754876 0.7411304081940953 0.0352539678502097 O
atom_frac 0.6811946005602038 0.7588470753293491 0.5352490295786652 O
atom_frac 0.8187951230284796 0.2588780273473218 0.9647487356263936 O
atom_frac 0.4161234510233314 0.0612375397332059 0.4361469084179674 O
atom_frac 0.0838733804625349 0.5612196369399740 0.0638519848445185 O
atom_frac 0.5838862307004290 0.9387495463370920 0.5638458166873903 O
atom_frac 0.9161253829540426 0.4387646643993719 0.9361391040020520 O
