#=======================================================
# FHI-aims file: geometry_Gd2Cu2H48C68N2O20.in
# Created using the Atomic Simulation Environment (ASE)
# Wed Dec  8 17:56:10 2021
#=======================================================
lattice_vector 11.1593452790000001 0.0000000000000000 1.0353509999999999 
lattice_vector 1.2580575070000000 11.3555705560000000 1.6639010000000001 
lattice_vector -0.0620027540000000 0.0349321830000000 12.1538968549999993 
atom_frac 0.4181661819172147 0.9813539780845135 0.6691726494742412 Gd
atom_frac 0.5818330425700678 0.0186449016534525 0.3308268413831286 Gd
atom_frac 0.5000002592873116 0.9999997596126776 0.9999997347786689 Cu
atom_frac 0.0000000250634145 0.9999997584118178 0.0000001251474657 Cu
atom_frac 0.2762221518894563 0.6478267032047712 0.6022573423863378 H
atom_frac 0.7237777732343247 0.3521739361769249 0.3977426706675261 H
atom_frac 0.2316662176610435 0.4534183184939238 0.5549694091359001 H
atom_frac 0.7683347030617186 0.5465814401526999 0.4450306396811071 H
atom_frac 0.3298950570633750 0.3813340564139694 0.3822897923526228 H
atom_frac 0.6701058588029695 0.6186657047635010 0.6177094337502353 H
atom_frac 0.4691279023088838 0.5014334138868790 0.2572839341754332 H
atom_frac 0.5308720228148971 0.4985672254948171 0.7427160788784306 H
atom_frac 0.5075591784217152 0.6976383021515673 0.3028450111421960 H
atom_frac 0.4924417423010468 0.3023614564950563 0.6971550376748114 H
atom_frac 0.2725858567375922 0.2214409807971478 0.2184609695909359 H
atom_frac 0.7274141634693974 0.7785587801455096 0.7815383328423735 H
atom_frac 0.0960144582575069 0.3559725408308340 0.1430971719372636 H
atom_frac 0.9039855668059146 0.6440272175809838 0.8569029532102022 H
atom_frac 0.9202412187742649 0.4118663061367514 0.2703266791261214 H
atom_frac 0.0797587112059404 0.5881343307140982 0.7296741566418915 H
atom_frac 0.9206517418591602 0.3391870023988943 0.4742922187598139 H
atom_frac 0.0793491837200263 0.6608127537168828 0.5257086527713497 H
atom_frac 0.0986186376615024 0.2079849485578578 0.5479829893610031 H
atom_frac 0.9013822782048350 0.7920148126196127 0.4520162367418549 H
atom_frac 0.3556895165375165 0.6956458448198859 0.7650402827547893 H
atom_frac 0.6443087123507851 0.3043539156531594 0.2349591723394369 H
atom_frac 0.2844615325817584 0.4953147640470803 0.7883346264063106 H
atom_frac 0.7155384924816559 0.5046849943647304 0.2116654987411550 H
atom_frac 0.2664976984934170 0.3793695021914162 0.9765450693633824 H
atom_frac 0.7335023265699973 0.6206302562203946 0.0234550557840834 H
atom_frac 0.3166002834128676 0.4622222428803441 0.1426394800367419 H
atom_frac 0.6833997416505537 0.5377775155314738 0.8573606451107239 H
atom_frac 0.3846881280516570 0.6632231666979039 0.1188742251870777 H
atom_frac 0.6153109964959924 0.3367765940099475 0.8811251535766899 H
atom_frac 0.2306672746784172 0.2452137066550577 0.6930128809931729 H
atom_frac 0.7693335461047109 0.7547869329614516 0.3069870557302393 H
atom_frac 0.0319868532398431 0.3664237823539054 0.6643983882672870 H
atom_frac 0.9680130767403623 0.6335768544969511 0.3356024475007331 H
atom_frac 0.8857306255946468 0.3946875766962350 0.8269559119528580 H
atom_frac 0.1142701951884816 0.6053130629202741 0.1730440247705474 H
atom_frac 0.9371629274988535 0.3047935354123227 0.0176199584413083 H
atom_frac 0.0628370927081363 0.6952062255303418 0.9823793439920010 H
atom_frac 0.1387286321061154 0.1876687946064167 0.0456244514513671 H
atom_frac 0.8612714880405150 0.8123300853663622 0.9543749630755443 H
atom_frac 0.0478966465998383 0.0039478563804209 0.5962936335012188 H
atom_frac 0.9521032785239496 0.9960527830012823 0.4037063795526450 H
atom_frac 0.8331909194372570 0.0886812830719066 0.5540287327693534 H
atom_frac 0.1668091056261573 0.9113184753399111 0.4459713923781123 H
atom_frac 0.6863970637550308 0.1340287387768058 0.7144471986852921 H
atom_frac 0.3136020607926184 0.8659710219310456 0.2855521800784757 H
atom_frac 0.7561639085124978 0.0972994378465017 0.9077408209768335 H
atom_frac 0.2438360117548654 0.9027012040660480 0.0922583693628737 H
atom_frac 0.4192940928091387 0.7982385675795387 0.4851006686350416 C
atom_frac 0.5807059273978582 0.2017611933631258 0.5148986337982749 C
atom_frac 0.3934729826521774 0.6832556446934888 0.4552340429975601 C
atom_frac 0.6065270424112371 0.3167441137183289 0.5447660821499055 C
atom_frac 0.3160840227016664 0.6145708661409587 0.5263675583717955 C
atom_frac 0.6839161023013814 0.3854280113009737 0.4736326788692722 C
atom_frac 0.2919820815279692 0.5068673176200849 0.4996084050815809 C
atom_frac 0.7080188391948000 0.4931324410265391 0.5003916437354334 C
atom_frac 0.3469346292628046 0.4664045071983409 0.4025145200005298 C
atom_frac 0.6530652910045516 0.5335961347142018 0.5974846703391777 C
atom_frac 0.4247237857184700 0.5343563055235165 0.3317648537519773 C
atom_frac 0.5752751389499124 0.4656452171241057 0.6682343008245866 C
atom_frac 0.4472899277207532 0.6431533000257873 0.3571870453378310 C
atom_frac 0.5527109930020089 0.3568464586208436 0.6428130034791764 C
atom_frac 0.3001063851963438 0.1282229210461949 0.4335707609087578 C
atom_frac 0.6998928392909390 0.8717759586917709 0.5664287299486118 C
atom_frac 0.1946599212493965 0.2069913415572699 0.3874712457946075 C
atom_frac 0.8053400989576005 0.7930084193853945 0.6125280566387019 C
atom_frac 0.1945688401240417 0.2482044999244409 0.2729943557004120 C
atom_frac 0.8054319806590868 0.7517961396920683 0.7270055810230005 C
atom_frac 0.0959886393400211 0.3222943878436483 0.2316871819497806 C
atom_frac 0.9040121814431076 0.6777062517728610 0.7683127547736248 C
atom_frac 0.9970923266205887 0.3545264390046726 0.3037316023161765 C
atom_frac 0.0029076984428258 0.6454733194071380 0.6962685228312894 C
atom_frac 0.9973587493973922 0.3139034523649116 0.4178725073736231 C
atom_frac 0.0026412756660221 0.6860963060468990 0.5821276177738427 C
atom_frac 0.0960937289726473 0.2406106781540133 0.4594178295437955 C
atom_frac 0.9039062912343495 0.7593890827886512 0.5405814728895137 C
atom_frac 0.4198764682121519 0.8081903305272109 0.9271587470293312 C
atom_frac 0.5801235568512696 0.1918094278846000 0.0728413781181345 C
atom_frac 0.3739863073807470 0.6906180217180662 0.9409182110186906 C
atom_frac 0.6260138127658762 0.3093808582547126 0.0590812035082209 C
atom_frac 0.3456517817811643 0.6440328332903817 0.8473481657448544 C
atom_frac 0.6543473476229023 0.3559669248866301 0.1526520357330696 C
atom_frac 0.3057672977114337 0.5326081092203694 0.8608404762545802 C
atom_frac 0.6942319316322666 0.4673907679867498 0.1391598373169387 C
atom_frac 0.2955852084256492 0.4671270588033281 0.9668942001730871 C
atom_frac 0.7044148166377652 0.5328726996084897 0.0331059249743788 C
atom_frac 0.3238208405884890 0.5136537676842465 0.0600706719731575 C
atom_frac 0.6761792795581414 0.4863451122885324 0.9399287425537535 C
atom_frac 0.3620366455927735 0.6254900815595051 0.0473273248583865 C
atom_frac 0.6379633794706476 0.3745096768523127 0.9526728002890793 C
atom_frac 0.3143204488562859 0.1353190204463317 0.8867271694084592 C
atom_frac 0.6856794762674949 0.8646816189353645 0.1132728436454045 C
atom_frac 0.1960886463103506 0.2094876510570245 0.8710648805216081 C
atom_frac 0.8039112788134304 0.7905129883246788 0.1289351325322556 C
atom_frac 0.1661948544318648 0.2599682941137190 0.7635278295872113 C
atom_frac 0.8338059663512634 0.7400323455027902 0.2364721071361942 C
atom_frac 0.0549687470903208 0.3267778822650272 0.7480409054082457 C
atom_frac 0.9450311780334671 0.6732227571166690 0.2519591076456179 C
atom_frac 0.9727703608517330 0.3430741156633488 0.8392740198218079 C
atom_frac 0.0272295642720478 0.6569265237183546 0.1607259932320630 C
atom_frac 0.0020172502234459 0.2928790442808094 0.9467300768290129 C
atom_frac 0.9979827748399686 0.7071207141310013 0.0532700483184527 C
atom_frac 0.1134198073274177 0.2264198398582238 0.9625374174778472 C
atom_frac 0.8865811133953443 0.7735799187883999 0.0374626313391602 C
atom_frac 0.1334900987272363 0.9577879721921292 0.8061650222120634 C
atom_frac 0.8665088307975634 0.0422135479246464 0.1938349550786569 C
atom_frac 0.0099559633262771 0.0062495472615538 0.7710032072241191 C
atom_frac 0.9900440617371374 0.9937502111502567 0.2289969179233465 C
atom_frac 0.9789245239277449 0.0255438503434462 0.6611383306080043 C
atom_frac 0.0210755011356696 0.9744559080683715 0.3388617945394614 C
atom_frac 0.8612167303996114 0.0726165369243574 0.6391753822859838 C
atom_frac 0.1387832946638028 0.9273832214874604 0.3608247428614817 C
atom_frac 0.7792944442703769 0.0985874713843913 0.7277819641827322 C
atom_frac 0.2207055807930373 0.9014122870274264 0.2722181609647337 C
atom_frac 0.8167825728045911 0.0780158987567532 0.8360472970713674 C
atom_frac 0.1832164518034246 0.9219847429209836 0.1639519695987985 C
atom_frac 0.9299210467506996 0.0324546100329854 0.8559266365632752 N
atom_frac 0.0700788783730814 0.9675460293487179 0.1440733764905886 N
atom_frac 0.3810948050426787 0.8235941135287775 0.5813817681448157 O
atom_frac 0.6189052151643111 0.1764056474138869 0.4186175342884937 O
atom_frac 0.4769629165257995 0.8651509966713604 0.4121361583580451 O
atom_frac 0.5230379042573290 0.1348496429451487 0.5878637783653602 O
atom_frac 0.2919491618126813 0.0877734009463396 0.5368388403819537 O
atom_frac 0.7080509583339420 0.9122254790264323 0.4631605741449575 O
atom_frac 0.3905113713547266 0.1071079048568677 0.3660987717965369 O
atom_frac 0.6094886488522702 0.8928918560857897 0.6339005306367796 O
atom_frac 0.4556293930068520 0.8549038976724505 0.8309950563653885 O
atom_frac 0.5443706272001447 0.1450958632702068 0.1690042460679209 O
atom_frac 0.4229451329723303 0.8550908282208314 0.0161961922018036 O
atom_frac 0.5770548872346666 0.1449089327218331 0.9838031102315060 O
atom_frac 0.3799543648770297 0.1116548171734024 0.8002891107652559 O
atom_frac 0.6200447645270372 0.8883449410036022 0.1997110907126682 O
atom_frac 0.3427315358831676 0.1000431644986506 0.9865626459719863 O
atom_frac 0.6572675935209060 0.8999565936783541 0.0134375555059378 O
atom_frac 0.2173200176100565 0.9409403452286257 0.7332928712007885 O
atom_frac 0.7826807080898632 0.0590611728269224 0.2667077761431713 O
atom_frac 0.1446063607420384 0.9379211082113131 0.9120723930913641 O
atom_frac 0.8553926687223951 0.0620795309355771 0.0879276962929580 O
