#=======================================================
# FHI-aims file: geometry_Cu8H56C88I8N8.in
# Created using the Atomic Simulation Environment (ASE)
# Wed Dec  8 17:56:10 2021
#=======================================================
lattice_vector 8.1461535640000005 -0.0407643470000000 -0.0000155770000000 
lattice_vector -1.5180165080000001 8.8950462150000007 0.0000163910000000 
lattice_vector -0.0000603800000000 0.0000462730000000 31.7762917519999988 
atom_frac 0.8160140362737494 0.3655865019366829 0.9821931697476245 Cu
atom_frac 0.6839872090070783 0.6344171624271554 0.4821937806752601 Cu
atom_frac 0.1839931538141713 0.6344103673386388 0.0178076936055760 Cu
atom_frac 0.3160023904440478 0.3655841231185519 0.5178070826670409 Cu
atom_frac 0.6624444000935839 0.5980063194360666 0.0057300744339770 Cu
atom_frac 0.8375551956608405 0.4020000461630602 0.5057285029617447 Cu
atom_frac 0.3375599428291451 0.4019950336745950 0.9942711036155459 Cu
atom_frac 0.1624413855865399 0.5980057682770337 0.4942698427813994 Cu
atom_frac 0.8559105248957265 0.6800860912590921 0.9383811181602226 H
atom_frac 0.6440889267189364 0.3199180207362815 0.4383776086245206 H
atom_frac 0.1440972942254461 0.3199141535561836 0.0616210039916751 H
atom_frac 0.3559070255033206 0.6800844181573498 0.5616207371200518 H
atom_frac 0.4126366131376785 0.2335413787652882 0.8537343756593714 H
atom_frac 0.0873565206534579 0.7664529782526162 0.3537341262330997 H
atom_frac 0.5873540052568130 0.7664587872320681 0.1462658582839467 H
atom_frac 0.9126385928787855 0.2335449599042575 0.6462657930135408 H
atom_frac 0.6024979108732892 0.8638030396657328 0.0534960227512187 H
atom_frac 0.8975055968324311 0.1362073437803630 0.5534941548603811 H
atom_frac 0.3975023268299295 0.1361960461906052 0.9465048405974344 H
atom_frac 0.1025053379581564 0.8638030333276419 0.4465035614873827 H
atom_frac 0.0202703802946829 0.6687695611791329 0.8677834270014915 H
atom_frac 0.4797227544142402 0.3312302707935260 0.3677805495573736 H
atom_frac 0.9797296477314675 0.3312283994966805 0.1322171216476065 H
atom_frac 0.5202762546523160 0.6687688094436554 0.6322181108904629 H
atom_frac 0.0902864465120672 0.2043363335357072 0.8501249380496034 H
atom_frac 0.4097134128676246 0.7956614645216079 0.3501246598328649 H
atom_frac 0.9097121432145554 0.7956604963290277 0.1498752958993421 H
atom_frac 0.5902827196160912 0.2043353540803992 0.6498758888149183 H
atom_frac 0.7374723147064728 0.7297801994334563 0.7342637620486485 H
atom_frac 0.7625306476595242 0.2702260523201759 0.2342626227994700 H
atom_frac 0.2625301999883334 0.2702245179690834 0.2657361571981199 H
atom_frac 0.2374662940823740 0.7297685215594640 0.7657357229496499 H
atom_frac 0.6685973498497263 0.1438151883651955 0.0472726040278602 H
atom_frac 0.8314097634707454 0.8561952763489418 0.5472718167587516 H
atom_frac 0.3314030975305612 0.8561850226716673 0.9527285740203411 H
atom_frac 0.1685946088716505 0.1438128222306148 0.4527281024871854 H
atom_frac 0.9281131931261227 0.1773996273487981 0.7789524889386783 H
atom_frac 0.5718874689569803 0.8226039004781499 0.2789496488190011 H
atom_frac 0.0718858159627516 0.8225994528704773 0.2210496332095033 H
atom_frac 0.4281131586563660 0.1773906902898830 0.7210493263319718 H
atom_frac 0.6612935761710829 0.1077439488033818 0.8600439833643847 H
atom_frac 0.8387007305541444 0.8922519608629572 0.3600438505798707 H
atom_frac 0.3387042336987633 0.8922618712672589 0.1399543623793562 H
atom_frac 0.1612960309486127 0.1077482332904012 0.6399557539663832 H
atom_frac 0.3413685477161791 0.6754327331118546 0.8706973885566285 H
atom_frac 0.1586289100472342 0.3245637156830838 0.3706960913806867 H
atom_frac 0.6586384621224540 0.3245697564453137 0.1293031600935564 H
atom_frac 0.8413723465952926 0.6754342506281577 0.6293035131689209 H
atom_frac 0.8541094238105557 0.6199394771649835 0.7977231371385258 H
atom_frac 0.6458898323870842 0.3800616004716986 0.2977223996201772 H
atom_frac 0.1458920425009254 0.3800596143332982 0.2022755233105116 H
atom_frac 0.3541073190318826 0.6199340985884734 0.7022762608284979 H
atom_frac 0.9332033556940403 0.2373836916807833 0.9188344213800477 H
atom_frac 0.5667995297312345 0.7626206393990459 0.4188347851534218 H
atom_frac 0.0667999682792343 0.7626187809831111 0.0811664419683709 H
atom_frac 0.4331972317796370 0.2373795547477968 0.5811660781929575 H
atom_frac 0.7747270971623550 0.0051396797667991 0.7251564205011148 H
atom_frac 0.7252728711538128 0.9948644045803618 0.2251548118512829 H
atom_frac 0.2252737695659874 0.9948627816360018 0.2748444428461028 H
atom_frac 0.2747250895415974 0.0051290497427914 0.7748444779990037 H
atom_frac 0.6257122323305212 0.8304820919132540 0.8679416197943083 H
atom_frac 0.8742848431584986 0.1695148725000948 0.3679403793075053 H
atom_frac 0.3742921400078103 0.1695260066695568 0.1320576700515659 H
atom_frac 0.1257158138866927 0.8304864637270626 0.6320592252400701 H
atom_frac 0.8736497848309027 0.8011302460998306 0.9335831477456651 C
atom_frac 0.6263532907814452 0.1988739324173067 0.4335806897951002 C
atom_frac 0.1263568056657718 0.1988699930865181 0.0664186597055973 C
atom_frac 0.3736434707192799 0.8011262617376717 0.5664186000511223 C
atom_frac 0.3972860460175482 0.1114885106350627 0.8569078662050842 C
atom_frac 0.1027087766719745 0.8885080695481449 0.3569075059126448 C
atom_frac 0.6027099062107979 0.8885139282536800 0.1430914236395822 C
atom_frac 0.8972875654806957 0.1114898742409025 0.6430920986345613 C
atom_frac 0.6723447263306142 0.9157553848320106 0.0264519683268105 C
atom_frac 0.8276567846359554 0.0842530223899303 0.5264507149537181 C
atom_frac 0.3276579686195690 0.0842437122838007 0.9735492097230747 C
atom_frac 0.1723473780253074 0.9157539510123486 0.4735482601926009 C
atom_frac 0.8086701762829592 0.8901505528191790 0.9639755401688674 C
atom_frac 0.6913337106345381 0.1098555616470094 0.4639735524625763 C
atom_frac 0.1913388714586404 0.1098496976282703 0.0360262672836029 C
atom_frac 0.3086638895663540 0.8901491332365977 0.5360257373817348 C
atom_frac 0.8351434524657577 0.0503808182432266 0.9588932661193824 C
atom_frac 0.6648589306156583 0.9496242179834484 0.4588919596100851 C
atom_frac 0.1648619094084581 0.9496194153125829 0.0411085413312904 C
atom_frac 0.3351394788616702 0.0503782321631334 0.5411079596358448 C
atom_frac 0.2183385113907761 0.8672085929777467 0.8625820596236764 C
atom_frac 0.2816578227708888 0.1327890593195492 0.3625813956127645 C
atom_frac 0.7816607073609632 0.1327916124334578 0.1374181743238410 C
atom_frac 0.7183409766287454 0.8672088957289648 0.6374185236356738 C
atom_frac 0.0359470632520384 0.7908531585736681 0.8636519897053745 C
atom_frac 0.4640472468014849 0.2091467217675316 0.3636495375396578 C
atom_frac 0.9640541933945529 0.2091448077343188 0.1363482442442958 C
atom_frac 0.5359503239655369 0.7908512276585713 0.6363488082080268 C
atom_frac 0.9785624648562674 0.0270722720346157 0.8935877421108671 C
atom_frac 0.5214345514532965 0.9729289221642504 0.3935865856443357 C
atom_frac 0.0214351059269903 0.9729256773784628 0.1064131212370611 C
atom_frac 0.4785632290009403 0.0270701524342414 0.6064136483030538 C
atom_frac 0.9774321212718036 0.9945891580267916 0.8181136781485208 C
atom_frac 0.5225614644464469 0.0054128057019156 0.3181119474264165 C
atom_frac 0.0225666781339129 0.0054087970168410 0.1818871852000115 C
atom_frac 0.4774344583541109 0.9945828877244481 0.6818873424217173 C
atom_frac 0.0740915219183478 0.0818827424609410 0.8539344371507979 C
atom_frac 0.4259069482837817 0.9181138853810399 0.3539327896824176 C
atom_frac 0.9259070678082679 0.9181140874037936 0.1460657967981476 C
atom_frac 0.5740914317576511 0.0818818193096789 0.6460658707668472 C
atom_frac 0.8051826911326569 0.8032693138767826 0.7580358829764150 C
atom_frac 0.6948150342888154 0.1967332938860480 0.2580341237571346 C
atom_frac 0.1948179659165916 0.1967320223471205 0.2419643509712230 C
atom_frac 0.3051816977820964 0.8032601548081857 0.7419648513925238 C
atom_frac 0.7064141046904879 0.0730007974049656 0.0225410130561059 C
atom_frac 0.7935912513836244 0.9270087923482251 0.5225401156547704 C
atom_frac 0.2935887999347385 0.9269994248929977 0.9774601649933032 C
atom_frac 0.2064102443597022 0.0729970446091812 0.4774591741908623 C
atom_frac 0.9118440524941958 0.0555820040816783 0.7830124889001270 C
atom_frac 0.5881515377866861 0.9444203340370620 0.2830101684560730 C
atom_frac 0.0881549565865640 0.9444170761441059 0.2169883744479222 C
atom_frac 0.4118468422608288 0.0555753706487749 0.7169894360932928 C
atom_frac 0.9567561714519074 0.8377003625774153 0.8233985065610270 C
atom_frac 0.5432393106404235 0.1622981821944975 0.3233966342583869 C
atom_frac 0.0432436468951494 0.1622964729194933 0.1766014126884912 C
atom_frac 0.4567576311055248 0.8376963916818884 0.6766023408907955 C
atom_frac 0.5366091127016688 0.0406703560641404 0.8606163961976776 C
atom_frac 0.9633872392967362 0.9593233085802878 0.3606156870615179 C
atom_frac 0.4633876488010812 0.9593298380892179 0.1393832083485691 C
atom_frac 0.0366095222060139 0.0406768855730704 0.6393839174847358 C
atom_frac 0.3569296614534849 0.7969817969757146 0.8663359057569053 C
atom_frac 0.1430675303902618 0.2030135717549229 0.3663350334210946 C
atom_frac 0.6430744717901435 0.2030184309560497 0.1336646428930308 C
atom_frac 0.8569302500619429 0.7969855028451961 0.6336648858262633 C
atom_frac 0.9578856561180373 0.8683300557190848 0.8991804616845657 C
atom_frac 0.5421153278533807 0.1316722227014182 0.3991783051744164 C
atom_frac 0.0421158102076546 0.1316690357677998 0.1008204016646843 C
atom_frac 0.4578844904896116 0.8683246127987443 0.6008209846750390 C
atom_frac 0.8704846183759544 0.7417069974703948 0.7934768348365396 C
atom_frac 0.6295137737819729 0.2582963688328520 0.2934752627834030 C
atom_frac 0.1295168479436484 0.2582920940213711 0.2065230844126162 C
atom_frac 0.3704833776369938 0.7416993302273200 0.7065233976652651 C
atom_frac 0.2387371003916385 0.0242733168904223 0.8576593371449164 C
atom_frac 0.2612575223084405 0.9757221303411256 0.3576580982213500 C
atom_frac 0.7612590320880201 0.9757235017148460 0.1423405821027970 C
atom_frac 0.7387388198462614 0.0242758134462946 0.6423418210258944 C
atom_frac 0.9171313697657483 0.1158401596415146 0.9225215017600094 C
atom_frac 0.5828691059578118 0.8841641220393940 0.4225208117990320 C
atom_frac 0.0828700965619689 0.8841589318437429 0.0774796762892720 C
atom_frac 0.4171317607685053 0.1158383393650340 0.5774797368481543 C
atom_frac 0.8257538557409133 0.9589502148591152 0.7528722146475459 C
atom_frac 0.6742429938164206 0.0410546910554928 0.2528705958664901 C
atom_frac 0.1742468013103604 0.0410511213631537 0.2471283340001165 C
atom_frac 0.3257551765540256 0.9589398884498120 0.7471286939833206 C
atom_frac 0.5166598144906871 0.8846464735585187 0.8651636812227893 C
atom_frac 0.9833372251801009 0.1153505195872029 0.3651635476314894 C
atom_frac 0.4833412619045845 0.1153571130329425 0.1348359233238341 C
atom_frac 0.0166603455970673 0.8846474298307639 0.6348363716163519 C
atom_frac 0.8848611702913942 0.5017150166678306 0.0546273798534855 I
atom_frac 0.6151402552623183 0.4982841032462915 0.5546267497860525 I
atom_frac 0.1151482967921709 0.4982874841504383 0.9453731687979001 I
atom_frac 0.3848585441332517 0.5017138518054834 0.4453725400623297 I
atom_frac 0.5820219336080896 0.4417630163598005 0.9356960861660822 I
atom_frac 0.9179822176403648 0.5582467662001918 0.4356954315890178 I
atom_frac 0.4179856758319432 0.5582361032782047 0.0643050918861974 I
atom_frac 0.0820141833678747 0.4417646685136133 0.5643041729512605 I
atom_frac 0.7208119111265960 0.8232152000442101 0.9979379589744255 N
atom_frac 0.7791879186457323 0.1767927909171974 0.4979363030490732 N
atom_frac 0.2791946793700717 0.1767850391421392 0.0020638484768369 N
atom_frac 0.2208123484710711 0.8232130404129095 0.5020623573959000 N
atom_frac 0.7844849231980434 0.1418725905461714 0.9890449187643142 N
atom_frac 0.7155184777588136 0.8581355093022368 0.4890440710078822 N
atom_frac 0.2155177717521397 0.8581265065696330 0.0109562592855710 N
atom_frac 0.2844781035027708 0.1418703051264600 0.5109564776354816 N
