#=======================================================
# FHI-aims file: geometry_Cu2H16C26S2N14.in
# Created using the Atomic Simulation Environment (ASE)
# Wed Dec  8 17:56:10 2021
#=======================================================
lattice_vector 5.7033890469999999 0.1036325530000000 0.0008765150000000 
lattice_vector -1.2302351720000000 5.5450960430000000 -0.0005216380000000 
lattice_vector -0.0017771460000000 0.0019678430000000 20.4937247579999990 
atom_frac 0.4421084074683677 0.4594270730807538 0.7500253039149740 Cu
atom_frac 0.5578981432274261 0.5405517863650644 0.2500298519068095 Cu
atom_frac 0.8192944423117224 0.3922807012652710 0.8538592525900625 H
atom_frac 0.1806636432287547 0.6078075096892307 0.3538638674392088 H
atom_frac 0.1807086666464244 0.6075359261078077 0.1461700376745370 H
atom_frac 0.8193593038791815 0.3924343452651726 0.6461737280226387 H
atom_frac 0.8492143336642570 0.0721311170782570 0.9349214700344105 H
atom_frac 0.1508177922401757 0.9279035882793349 0.4349185880539109 H
atom_frac 0.1506914316370498 0.9274943759580054 0.0650804940907790 H
atom_frac 0.8493048354898531 0.0724590493374890 0.5650775301080913 H
atom_frac 0.1104419946115627 0.0909567796056834 0.8133451014531161 H
atom_frac 0.8895175692633400 0.9089545695202403 0.3133566272399904 H
atom_frac 0.8894927732175542 0.9089657288484004 0.1866646762596673 H
atom_frac 0.1105766594327449 0.0910731578048996 0.6866663210954796 H
atom_frac 0.1135886790493430 0.7535858901274253 0.8905069113769313 H
atom_frac 0.8863594491649347 0.2463340294634618 0.3905064445014474 H
atom_frac 0.8862223434195684 0.2461856508956046 0.1094789580277435 H
atom_frac 0.1137556784409881 0.7538231687100915 0.6094686867196160 H
atom_frac 0.6660590561502744 0.2484149501262677 0.8638100677629981 C
atom_frac 0.3338790602346080 0.7516250939206801 0.3638128019307842 C
atom_frac 0.3338460908837887 0.7513133481676917 0.1361914110511506 C
atom_frac 0.6661755041277077 0.2486251978504299 0.6361945392303240 C
atom_frac 0.4835674771708299 0.8814995999134324 0.9181242644627615 C
atom_frac 0.5163698609387949 0.1185343735793367 0.4181162442303190 C
atom_frac 0.5163504744461846 0.1182230542576335 0.0818620870784628 C
atom_frac 0.4837196064790206 0.8817639665640655 0.5818657230402309 C
atom_frac 0.6827167204159608 0.0686571380931866 0.9085575034600523 C
atom_frac 0.3172539790571705 0.9313721813416791 0.4085503177250445 C
atom_frac 0.3172390817221427 0.9310377510060301 0.0914478759711557 C
atom_frac 0.6828267582132453 0.0689263198817329 0.5914375053739390 C
atom_frac 0.4927988369974231 0.6791419690694909 0.9617398766416015 C
atom_frac 0.5072161356253843 0.3209389442638155 0.4617375778750982 C
atom_frac 0.5070618631067773 0.3206160188940714 0.0382484300646198 C
atom_frac 0.4929272722406637 0.6793655989416365 0.5382512186057440 C
atom_frac 0.2716391659348786 0.0798461790097846 0.8408234109941900 C
atom_frac 0.7283392410416240 0.9201463081379514 0.3408263585800028 C
atom_frac 0.7282973682258813 0.9200113783599521 0.1591746540879200 C
atom_frac 0.2717361179257267 0.0800134231612688 0.6591868348375840 C
atom_frac 0.2730884655659551 0.8923487754561847 0.8839533238008598 C
atom_frac 0.7268777327044232 0.1076007089818063 0.3839428460319851 C
atom_frac 0.7267885254840891 0.1074359565499563 0.1160418142487600 C
atom_frac 0.2732445646287331 0.8925978256681617 0.6160537559213849 C
atom_frac 0.9701680830261308 0.6488297178278799 0.7500109554930460 C
atom_frac 0.0297996605074573 0.3511318431503341 0.2500154122477339 C
atom_frac 0.7467357392530545 0.7895657614655605 0.7500035998301442 S
atom_frac 0.2532748793479270 0.2103914030307692 0.2499900730305242 S
atom_frac 0.4655505937125780 0.2539617300548472 0.8291408523663860 N
atom_frac 0.5343858466375835 0.7460813172265972 0.3291271287579248 N
atom_frac 0.5343696651136723 0.7458366154587920 0.1708684348523022 N
atom_frac 0.4656518434656006 0.2541476505502728 0.6708763089481593 N
atom_frac 0.1358493088514976 0.5518039110194622 0.7500119646103585 N
atom_frac 0.8641434631811860 0.4481679996281115 0.2500226975455604 N
atom_frac 0.6986712470950779 0.6788912419139380 0.9948841404089990 N
atom_frac 0.3013384823933478 0.3211752568785826 0.4948960488775781 N
atom_frac 0.3012001281750614 0.3208431098488731 0.0050831832064659 N
atom_frac 0.6988132466529180 0.6791760279202208 0.5050678627706020 N
atom_frac 0.2942138351036688 0.5026511260248583 0.9660827669386832 N
atom_frac 0.7057785450220350 0.4973694242669922 0.4660641700861062 N
atom_frac 0.7056433743160184 0.4970907023333381 0.0338894370154179 N
atom_frac 0.2943786374898422 0.5029258519735009 0.5339036435371725 N
