#=======================================================
# FHI-aims file: geometry_Cu4H24C40S2N16.in
# Created using the Atomic Simulation Environment (ASE)
# Wed Dec  8 17:56:10 2021
#=======================================================
lattice_vector 6.7862453990000002 0.0258363450000000 0.0000130050000000 
lattice_vector -3.0852081739999999 7.6645014590000002 -0.0000060980000000 
lattice_vector 0.0000528280000000 -0.0000026670000000 18.2855332709999985 
atom_frac 0.3399458101199854 0.6381925335777793 0.2107091662901297 Cu
atom_frac 0.6600500436996981 0.3618002592381230 0.7107024678857742 Cu
atom_frac 0.9109587957415498 0.7099085947152729 0.4895685758424619 Cu
atom_frac 0.0890608219802047 0.2901038828112802 0.9895730325521942 Cu
atom_frac 0.1729174580789135 0.2153412153816845 0.2304384018726893 H
atom_frac 0.8270616426746503 0.7846607806499933 0.7304268260038782 H
atom_frac 0.2236889468230032 0.0079589721189350 0.3217924821908796 H
atom_frac 0.7763061315759074 0.9920456430646778 0.8217865856537472 H
atom_frac 0.4487763526750471 0.1316375787224686 0.4330158081277845 H
atom_frac 0.5512296627874775 0.8683592487005992 0.9330123367837615 H
atom_frac 0.6201913818404208 0.4557697235563082 0.4460714704247053 H
atom_frac 0.3798141479593796 0.5442297240233529 0.9460707611227266 H
atom_frac 0.1593728845411847 0.9775305050919911 0.5981714465874290 H
atom_frac 0.8406332427978356 0.0224713077908376 0.0981731939664954 H
atom_frac 0.2798543171304004 0.2995721554527790 0.6131348766878234 H
atom_frac 0.7201501110264203 0.7004296735706956 0.1131345132246651 H
atom_frac 0.1471158247954563 0.4693756631879750 0.5213827131928143 H
atom_frac 0.8528823573420042 0.5306287324678324 0.0213782195053014 H
atom_frac 0.9125171003627771 0.3069508208866266 0.4203787710524267 H
atom_frac 0.0874759029750862 0.6930590887679813 0.9203763893143417 H
atom_frac 0.8318545540015378 0.2975494998234964 0.2462575703673835 H
atom_frac 0.1681499103776005 0.7024537264373122 0.7462523457499871 H
atom_frac 0.7504241202147031 0.4334648719704006 0.1350238381025974 H
atom_frac 0.2495793637040435 0.5665291471716500 0.6350238758051887 H
atom_frac 0.4845546129221958 0.2433284155729467 0.0436167307982629 H
atom_frac 0.5154478941032038 0.7566603243818404 0.5436121420904670 H
atom_frac 0.3202351214223142 0.9212466742924189 0.0691006072602960 H
atom_frac 0.6797675897426316 0.0787433874260017 0.5690969733053137 H
atom_frac 0.2698946866943785 0.2627460720507386 0.2792720352511679 C
atom_frac 0.7300983648222542 0.7372493873596682 0.7792660345004094 C
atom_frac 0.2992408860328625 0.1480708949202167 0.3303041219414383 C
atom_frac 0.7007614006937077 0.8519271783062551 0.8302965987723497 C
atom_frac 0.4251834731654043 0.2172203718586870 0.3914272386275002 C
atom_frac 0.5748237865628809 0.7827842507241202 0.8914214891225641 C
atom_frac 0.5199527062063823 0.3973079531964530 0.3991180105407893 C
atom_frac 0.4800364751874114 0.6026928215301837 0.8991122757366202 C
atom_frac 0.4845865232192564 0.5029421673359521 0.3449326126515899 C
atom_frac 0.5154049733248273 0.4970650854586225 0.8449273039667987 C
atom_frac 0.5841290750981541 0.6947704542591991 0.3452000303498082 C
atom_frac 0.4158597429330301 0.3052276747362087 0.8451941884316270 C
atom_frac 0.7807701757368264 0.9571214577183013 0.3962310300296893 C
atom_frac 0.2192269984289297 0.0428805927733293 0.8962274803562523 C
atom_frac 0.9157080471592780 0.0585612344002300 0.4557656768774976 C
atom_frac 0.0842820482299799 0.9414434908196225 0.9557661997504638 C
atom_frac 0.1099821538249373 0.0560336453084531 0.5598386855695665 C
atom_frac 0.8900198565663331 0.9439707642067602 0.0598376960304918 C
atom_frac 0.1739114465231211 0.2358076763266084 0.5681966734169350 C
atom_frac 0.8260910102086571 0.7641915186352362 0.0681951080258614 C
atom_frac 0.1030508165683557 0.3288353374771232 0.5175528941270217 C
atom_frac 0.8969450548524520 0.6711638444391069 0.0175533534204177 C
atom_frac 0.9709550064031945 0.2391421425761422 0.4608954360868936 C
atom_frac 0.0290376666963257 0.7608651869562952 0.9608937295794887 C
atom_frac 0.6460569010651511 0.9502456281793954 0.2821803070305364 C
atom_frac 0.3539408441526177 0.0497602551641450 0.7821765703229744 C
atom_frac 0.6135821372062297 0.0393264791365127 0.2161611696852077 C
atom_frac 0.3864189451929789 0.9606715187148039 0.7161574474595795 C
atom_frac 0.7190216142295043 0.2188079247669563 0.2058885528586387 C
atom_frac 0.2809840385450997 0.7811900505295384 0.7058865015421887 C
atom_frac 0.6730775386283340 0.2937360675786422 0.1432385372092497 C
atom_frac 0.3269322977138600 0.7062592405822057 0.6432358236807973 C
atom_frac 0.5275958863236242 0.1887101340335278 0.0926013075076852 C
atom_frac 0.4724076514484850 0.8112825506857603 0.5925968164529749 C
atom_frac 0.4336217820601506 0.0101320462414094 0.1069219253033609 C
atom_frac 0.5663818430362257 0.9898645622995943 0.6069201540869997 C
atom_frac 0.0536950535983039 0.6716097127206242 0.3400657396759499 C
atom_frac 0.9463071029395351 0.3283948913266599 0.8400782995041498 C
atom_frac 0.2037368074894560 0.4387456097069915 0.0675577795607794 C
atom_frac 0.7962936139959851 0.5612534905409844 0.5675488328898908 C
atom_frac 0.0280039432192680 0.6725234744840520 0.2515684759466268 S
atom_frac 0.9719898169184662 0.3274693538297057 0.7515755298193130 S
atom_frac 0.3584169622677110 0.4357244365486180 0.2864416322023189 N
atom_frac 0.6415706870425169 0.5642723507785944 0.7864372826420478 N
atom_frac 0.6920991782190029 0.7816672480521658 0.4035586852454713 N
atom_frac 0.3078946362999276 0.2183309047144349 0.9035529389462837 N
atom_frac 0.9857419882140236 0.9681951807567089 0.5045350850724830 N
atom_frac 0.0142608644052231 0.0318091874322732 0.0045358266166318 N
atom_frac 0.7572400035226678 0.0457389939773876 0.3374771924643269 N
atom_frac 0.2427565941067087 0.9542630175691968 0.8374747640711748 N
atom_frac 0.4739290949329985 0.9369345011108621 0.1673617883943379 N
atom_frac 0.5260744887671152 0.0630608449154408 0.6673594563577581 N
atom_frac 0.5615833008995921 0.7736356401623183 0.2822147616784890 N
atom_frac 0.4383997120289891 0.2263637692847169 0.7822104757350490 N
atom_frac 0.0669301605134365 0.6761864261008198 0.4049957495471547 N
atom_frac 0.9330627529757648 0.3238130354231856 0.9050006688279523 N
atom_frac 0.2724397555170198 0.5245770378468249 0.1197788231456940 N
atom_frac 0.7275833745079369 0.4754142950260416 0.6197737451183869 N
