#=======================================================
# FHI-aims file: geometry_Cu4H12C8S4N16.in
# Created using the Atomic Simulation Environment (ASE)
# Wed Dec  8 17:56:10 2021
#=======================================================
lattice_vector 4.9085932080000001 0.0000006910000000 -0.0000044960000000 
lattice_vector 0.0000037220000000 8.1132338950000005 -2.9537130490000001 
lattice_vector -0.0000106450000000 -0.0798288430000000 11.6479445599999991 
atom_frac 0.5058817587677779 0.3282073244108971 0.8442204099342163 Cu
atom_frac 0.0058848513454137 0.1717933971896812 0.6557782264607110 Cu
atom_frac 0.4941128863360617 0.6717931956596955 0.1557791196922551 Cu
atom_frac 0.9941199799728575 0.8282058703061211 0.3442192684977030 Cu
atom_frac 0.6545123156631331 0.5880569615552388 0.6478125324789799 H
atom_frac 0.1545138586881051 0.9119432825029037 0.8521889348837204 H
atom_frac 0.3454843666877493 0.4119448110891426 0.3521890318200107 H
atom_frac 0.8454909726373500 0.0880572545036600 0.1478123160824865 H
atom_frac 0.8913336829393257 0.7584561068274310 0.6843693036315557 H
atom_frac 0.3913312513348400 0.7415428629564144 0.8156320234179119 H
atom_frac 0.1086650366553883 0.2415444301796300 0.3156319473324202 H
atom_frac 0.6086695055053112 0.2584576825188876 0.1843700882148127 H
atom_frac 0.8649756020781535 0.6141694248405045 0.5308957388597477 H
atom_frac 0.3649715800775296 0.8858283220750423 0.9691061162639228 H
atom_frac 0.1350251547625163 0.3858286493604837 0.4691057461014551 H
atom_frac 0.6350251022775807 0.1141709962318345 0.0308965426995584 H
atom_frac 0.5005534734209788 0.9491045678061454 0.6493604737145944 C
atom_frac 0.0005494455313055 0.5508944318601150 0.8506371251544634 C
atom_frac 0.4994513578949125 0.0508971624955592 0.3506367872473390 C
atom_frac 0.9994472368142550 0.4491060797419024 0.1493615438047442 C
atom_frac 0.7531860688463040 0.6790218751545040 0.6152389481775556 C
atom_frac 0.2531838166140474 0.8209783443368934 0.8847617306077494 C
atom_frac 0.2468146879898754 0.3209798890211386 0.3847617554549174 C
atom_frac 0.7468149029825282 0.1790222011385723 0.1152403810242291 C
atom_frac 0.6959138267276899 0.0760584835465465 0.7671506348727987 S
atom_frac 0.1959127967006609 0.4239434342193319 0.7328475930276426 S
atom_frac 0.3040869301031677 0.9239420195867394 0.2328471734198913 S
atom_frac 0.8040859228884685 0.5760570773825224 0.2671510759323041 S
atom_frac 0.2823950941982999 0.9855411931728285 0.5927232153867621 N
atom_frac 0.7823927509161307 0.5144577689791558 0.9072754500671321 N
atom_frac 0.7176076998785063 0.0144568471543849 0.4072748269031549 N
atom_frac 0.2176039314331462 0.4855427595596709 0.0927249402280950 N
atom_frac 0.2140414027312900 0.8441526176462517 0.4995409734693438 N
atom_frac 0.7140370805450046 0.6558477465881863 0.0004592447652811 N
atom_frac 0.7859613913452603 0.1558466583181186 0.5004573821563341 N
atom_frac 0.2859575645606967 0.3441527819508039 0.9995411455291929 N
atom_frac 0.3724351412699319 0.7223291931289849 0.4972632560235296 N
atom_frac 0.8724286069712901 0.7776711452636534 0.0027370779342917 N
atom_frac 0.6275696900520629 0.2776700913036195 0.5027359602709039 N
atom_frac 0.1275660381341480 0.2223306189124941 0.9972636256959502 N
atom_frac 0.5502031327710027 0.7846639872556976 0.5900478575037836 N
atom_frac 0.0501991127628756 0.7153362568841570 0.9099518123115756 N
atom_frac 0.4497976240635708 0.2153365328143907 0.4099516721249259 N
atom_frac 0.9497975695863939 0.2846642716546626 0.0900485779836444 N
