#=======================================================
# FHI-aims file: geometry_Cu4H8C16N8O8.in
# Created using the Atomic Simulation Environment (ASE)
# Wed Dec  8 17:56:10 2021
#=======================================================
lattice_vector 4.8296883890000002 -0.0011300310000000 -0.0030096890000000 
lattice_vector -2.4155869700000001 7.6437757370000003 -1.6767803960000001 
lattice_vector -0.0079150600000000 -0.0214986250000000 12.9842316140000005 
atom_frac 0.5728910713640402 0.4783888021317821 0.8535119765644835 Cu
atom_frac 0.0933709456157956 0.5203520219540110 0.6464900917115911 Cu
atom_frac 0.4271223987780886 0.5216076510340457 0.1464859104324603 Cu
atom_frac 0.9066328260099326 0.4796457385005014 0.3535079618602097 Cu
atom_frac 0.3975418174768848 0.9402452041834125 0.0769465019374422 H
atom_frac 0.4597396273846782 0.0612454345278053 0.4226710505797442 H
atom_frac 0.6024262225301767 0.0597721819033055 0.9230540778011189 H
atom_frac 0.5402897275061561 0.9387496884320683 0.5773181965023821 H
atom_frac 0.0100066107880394 0.8260323555180874 0.2193056209741826 H
atom_frac 0.1846491680751754 0.1752571241509173 0.2803664902804499 H
atom_frac 0.9899572244152138 0.1739601229152470 0.7806771080877296 H
atom_frac 0.8153638216417248 0.8247301331674421 0.7196178864166283 H
atom_frac 0.1457791222196646 0.7083099599241861 0.8557640787100809 C
atom_frac 0.4380671333818710 0.2914241138131146 0.6440198338559994 C
atom_frac 0.8542179073304650 0.2917074304687118 0.1442365083042318 C
atom_frac 0.5619437265793225 0.7085671127153932 0.3559804582290624 C
atom_frac 0.0579060709700769 0.7318993526356010 0.9642048245743239 C
atom_frac 0.3256578875150353 0.2677554989557436 0.5356148524825599 C
atom_frac 0.9421041717271519 0.2681154482644887 0.0358046730756030 C
atom_frac 0.6743500442468215 0.7322422794521372 0.4643893656915806 C
atom_frac 0.1914899929752494 0.8375581582493511 0.0609498851464210 C
atom_frac 0.3547590648298068 0.1631044236762166 0.4387605045826177 C
atom_frac 0.8084836558101925 0.1624579676135696 0.9390674767759889 C
atom_frac 0.6452667492087157 0.8368959813473822 0.5612463674318775 C
atom_frac 0.9939835847577922 0.7834690325596227 0.1343504296588023 C
atom_frac 0.2107763896063730 0.2172111242834802 0.3653693085124701 C
atom_frac 0.0059773597917854 0.2165300324294961 0.8656485526180830 C
atom_frac 0.7892375022136802 0.7827696220261584 0.6346257800378295 C
atom_frac 0.7583923634992901 0.6534422258616674 0.0836716158256294 N
atom_frac 0.1033551418265972 0.3461514729964820 0.4161864353200427 N
atom_frac 0.2415886517477475 0.3465555507148892 0.9163333660378256 N
atom_frac 0.8966518028631898 0.6538319135760634 0.5838174643971996 N
atom_frac 0.7976146550528255 0.6228827707594178 0.9807548547839032 N
atom_frac 0.1728271932849240 0.3760793585627696 0.5191483679798807 N
atom_frac 0.2023971047471350 0.3771267911148686 0.0192524263213301 N
atom_frac 0.8271685334391207 0.6239105721569801 0.4808571444115514 N
atom_frac 0.3845773381627353 0.7858575876286764 0.8277076668580106 O
atom_frac 0.6016255855836546 0.2149897564095866 0.6718396262578779 O
atom_frac 0.6154181860176705 0.2141650526263987 0.1722989889278422 O
atom_frac 0.3983523789494754 0.7849936345258685 0.3281673479650848 O
atom_frac 0.9428485819980919 0.5870460389168102 0.7876234246764610 O
atom_frac 0.3546023169297782 0.4114073631960480 0.7123669169684775 O
atom_frac 0.0571993006748387 0.4129530108162670 0.2123655636378814 O
atom_frac 0.6453887716617288 0.5885982044119018 0.2876167385784214 O
