#=======================================================
# FHI-aims file: geometry_Cu4H56C72N16O16.in
# Created using the Atomic Simulation Environment (ASE)
# Wed Dec  8 17:56:10 2021
#=======================================================
lattice_vector 5.3579083630000000 -0.0000071140000000 -0.4331962690000000 
lattice_vector -0.0000242700000000 15.0457413019999997 0.0000125320000000 
lattice_vector 0.0161156440000000 0.0000182990000000 24.2076005350000010 
atom_frac 0.7653445811944196 0.0858961074877911 0.2640882697721167 Cu
atom_frac 0.2346722393439649 0.5858998354133361 0.2359115182757563 Cu
atom_frac 0.2346069685341376 0.9140997393648930 0.7359027336144236 Cu
atom_frac 0.7653688505211634 0.4140966761025595 0.7640951326114164 Cu
atom_frac 0.3342764221814818 0.9475370557822201 0.2711997587235970 H
atom_frac 0.6657100622756148 0.4475299962820999 0.2288057215236776 H
atom_frac 0.6656769491155502 0.0524581264132991 0.7288061486227306 H
atom_frac 0.3342918514213765 0.5524598688236538 0.7711948580931818 H
atom_frac 0.9719742067117636 0.3930320649289242 0.4449594522538618 H
atom_frac 0.0279576785691944 0.8930353727363569 0.0550393240585905 H
atom_frac 0.0279362831850207 0.6069637819047389 0.5550312294582582 H
atom_frac 0.9721244922251771 0.1069558216879116 0.9449606262955114 H
atom_frac 0.6528914488773695 0.7765005611724974 0.4415766194239480 H
atom_frac 0.3470972070720962 0.2765002612024716 0.0584327946067020 H
atom_frac 0.3471328492859982 0.2235012674570385 0.5584280785985030 H
atom_frac 0.6528991177532504 0.7235088784618853 0.9415643802398391 H
atom_frac 0.2005340668744253 0.2258105018280077 0.2750325365826357 H
atom_frac 0.7994672050325066 0.7258187783123161 0.2249734378495276 H
atom_frac 0.7994137502581040 0.7741860096628981 0.7249584000085604 H
atom_frac 0.2005664197218948 0.2741970077573229 0.7750330794391259 H
atom_frac 0.2545923340445171 0.9659034355762797 0.4697948616625354 H
atom_frac 0.7454036533661964 0.4659069041066886 0.0302091172454126 H
atom_frac 0.7454189385591335 0.0341030455422597 0.5301967973690508 H
atom_frac 0.2545889127657617 0.5341015709055270 0.9697966653008477 H
atom_frac 0.5015685504587495 0.1154982345027378 0.3831352952091577 H
atom_frac 0.4984224002287689 0.6155071539074725 0.1168673039915333 H
atom_frac 0.4983867405599228 0.8844962830753574 0.6168528834748556 H
atom_frac 0.5016317177171032 0.3844926807992267 0.8831515597406893 H
atom_frac 0.1075618321555325 0.0506424851948779 0.3843959972931258 H
atom_frac 0.8924322509347535 0.5506424752962288 0.1156108560508642 H
atom_frac 0.8924195622767145 0.9493673191026487 0.6156009103729048 H
atom_frac 0.1075659016381678 0.4493586886745789 0.8843991574028250 H
atom_frac 0.4640493254257906 0.3452396990092482 0.3335031118920639 H
atom_frac 0.5359343794385651 0.8452485331647921 0.1664978804949939 H
atom_frac 0.5359283300717196 0.6547428550481696 0.6664957943466449 H
atom_frac 0.4640974149960472 0.1547559540402830 0.8334966243372578 H
atom_frac 0.3126060096033286 0.4024391391700631 0.3850552928689837 H
atom_frac 0.6873744847093093 0.9024415955371123 0.1149443435651847 H
atom_frac 0.6873735072209115 0.5975427502462765 0.6149452990522022 H
atom_frac 0.3126647637052146 0.0975549159879989 0.8850540125011434 H
atom_frac 0.6235040419846882 0.3356541388244664 0.4970713805723577 H
atom_frac 0.3763881682613501 0.8356459394010965 0.0029143523650603 H
atom_frac 0.3763803483463306 0.6643530068872822 0.5029093329326386 H
atom_frac 0.6236734694477803 0.1643312975744919 0.9970864698358354 H
atom_frac 0.3913148174282027 0.1995185341413332 0.4663735095192507 H
atom_frac 0.6085929471532553 0.6995138028194389 0.0336155343675202 H
atom_frac 0.6085863608621837 0.8004799712557684 0.5336103960654199 H
atom_frac 0.3914649293866290 0.3004647634226956 0.9663947216745612 H
atom_frac 0.0328450030030112 0.8319145515157516 0.4976328773182601 H
atom_frac 0.9671516290077734 0.3319136449738096 0.0023737304165508 H
atom_frac 0.9671867790312306 0.1680952528034965 0.5023657582233269 H
atom_frac 0.0328465608897019 0.6680988178903960 0.9976238908972307 H
atom_frac 0.0939482373289309 0.8320350836564215 0.3303713471008152 H
atom_frac 0.9060539810187295 0.3320370356735651 0.1696399045029011 H
atom_frac 0.9060554979335222 0.1679534521522612 0.6696441364761226 H
atom_frac 0.0939535104913745 0.6679608051049684 0.8303677975128778 H
atom_frac 0.2761602195219766 0.7730808831073046 0.3820891655544472 H
atom_frac 0.7238769367140564 0.2730881057566208 0.1179186413677158 H
atom_frac 0.7238696489365921 0.2269149637540835 0.6179251333000123 H
atom_frac 0.2761772471235773 0.7269210339353478 0.8820783295886513 H
atom_frac 0.8004373549412023 0.2063254248672948 0.3676557648574317 C
atom_frac 0.1995133515464076 0.7063340239721256 0.1323489117847672 C
atom_frac 0.1994955317861766 0.7936690926971793 0.6323349045544262 C
atom_frac 0.8005090653930510 0.2936644814510315 0.8676607096955991 C
atom_frac 0.7927362758821985 0.9626198300074476 0.3664166682128139 C
atom_frac 0.2072858186619372 0.4626232028352248 0.1335848896296667 C
atom_frac 0.2072619102307200 0.0373800046971411 0.6335821923199773 C
atom_frac 0.7927478234324924 0.5373806197232511 0.8664158446678910 C
atom_frac 0.4721047413173523 0.9414556229700038 0.3064666489133288 C
atom_frac 0.5278928821136050 0.4414518421205003 0.1935402762415421 C
atom_frac 0.5278616940792845 0.0585402238713115 0.6935394922154002 C
atom_frac 0.4721276908752970 0.5585433401113561 0.8064618765617624 C
atom_frac 0.8725677872796141 0.3324946378040252 0.4318676247140231 C
atom_frac 0.1273616793525392 0.8324926906480171 0.0681324102785865 C
atom_frac 0.1273613830276332 0.6675058615244042 0.5681176079750117 C
atom_frac 0.8726924758275488 0.1674985037550698 0.9318740613224321 C
atom_frac 0.7482157922336796 0.8368087156846400 0.4299337221658135 C
atom_frac 0.2518032760007287 0.3368089619061295 0.0700745212786771 C
atom_frac 0.2518122522166948 0.1631977654314127 0.5700664988668364 C
atom_frac 0.7482210383686337 0.6632048302481479 0.9299248068133964 C
atom_frac 0.9327233403854933 0.2843708061548397 0.3853842801908769 C
atom_frac 0.0672262232055374 0.7843779940135038 0.1146149249792430 C
atom_frac 0.0672039462099363 0.7156257053263032 0.6146067020986904 C
atom_frac 0.9328148828264348 0.2156218407084367 0.8853863559813248 C
atom_frac 0.6648504059332084 0.8858046574000297 0.3831028028152090 C
atom_frac 0.3351765764886210 0.3858075271073886 0.1169038791498380 C
atom_frac 0.3351682908407058 0.1141958419461702 0.6169026211575711 C
atom_frac 0.6648589393599951 0.6141962954549457 0.8830944101182537 C
atom_frac 0.0837071018158326 0.2304462677614013 0.3096750008495945 C
atom_frac 0.9162904807091864 0.7304467633091606 0.1903304896717444 C
atom_frac 0.9162519131258408 0.7695529022941514 0.6903161361256025 C
atom_frac 0.0837338125054785 0.2695597177976622 0.8096758606333339 C
atom_frac 0.0887768913484521 0.9442062183109101 0.4445659936330059 C
atom_frac 0.9112413012219492 0.4442044651699958 0.0554363396379358 C
atom_frac 0.9112474254576172 0.0557969396059690 0.5554325083213740 C
atom_frac 0.0887718078805975 0.5558060037767093 0.9445652664974203 C
atom_frac 0.6039912083252404 0.1749576164377018 0.3968007705471877 C
atom_frac 0.3959760080849364 0.6749598258129054 0.1032050602085590 C
atom_frac 0.3959472773277923 0.8250428828883969 0.6031899990546349 C
atom_frac 0.6040706645149001 0.3250340271393739 0.8968070607975206 C
atom_frac 0.0080107164618965 0.9922218178822321 0.3973404040624615 C
atom_frac 0.9920060374959123 0.4922240140797740 0.1026643323085281 C
atom_frac 0.9920005350292201 0.0077866571474559 0.6026582771780795 C
atom_frac 0.0080182507489752 0.5077824670250378 0.8973436702812165 C
atom_frac 0.2826809475086804 0.3704028666175745 0.3444092560035088 C
atom_frac 0.7172936563547553 0.8704072463303376 0.1555907212828060 C
atom_frac 0.7172967092493467 0.6295836752797401 0.6555892371622959 C
atom_frac 0.2827381393012162 0.1295925883959370 0.8444033704803073 C
atom_frac 0.6758881970994254 0.3001557910680220 0.4604383845303843 C
atom_frac 0.3240167394452557 0.8001574225973658 0.0395529831080950 C
atom_frac 0.3240036447356474 0.6998453728824644 0.5395470063501548 C
atom_frac 0.6760355605992459 0.1998297839700029 0.9604497374566420 C
atom_frac 0.5439238394802715 0.2227590979648966 0.4431295439941039 C
atom_frac 0.4560139840951863 0.7227581536365333 0.0568641446692126 C
atom_frac 0.4560034657668909 0.7772407367232930 0.5568552422265256 C
atom_frac 0.5440103090261276 0.2772277236333736 0.9431422056448682 C
atom_frac 0.9612553070694716 0.8677743520501622 0.4606215028006985 C
atom_frac 0.0387715094529639 0.3677724775422107 0.0393860210529908 C
atom_frac 0.0387708760481615 0.1322314644271643 0.5393770325500498 C
atom_frac 0.9612546711948369 0.6322366621336073 0.9606133404386413 C
atom_frac 0.2801727931153408 0.8042439056901640 0.3412440534089570 C
atom_frac 0.7198422486689610 0.3042470373414973 0.1587637386039731 C
atom_frac 0.7198365497759056 0.1957519411634722 0.6587686388592074 C
atom_frac 0.2801727453487003 0.6957587791342947 0.8412317048634534 C
atom_frac 0.1894244993298599 0.4392602343361886 0.3004255820828944 C
atom_frac 0.8105619362496272 0.9392612720587650 0.1995712308937669 C
atom_frac 0.8105867322580382 0.5607429235662453 0.6995797082986144 C
atom_frac 0.1894288132414772 0.0607385626540164 0.8004179954121042 C
atom_frac 0.3321766149080290 0.7338194041614016 0.2975957267465077 C
atom_frac 0.6678490100438382 0.2338137401585315 0.2024044787986483 C
atom_frac 0.6678514046573057 0.2661791012657844 0.7024127557129417 C
atom_frac 0.3321249352939475 0.7661854299037643 0.7975869253567608 C
atom_frac 0.9010332246803330 0.1745849870240477 0.3202346317665529 N
atom_frac 0.0989657104999893 0.6745927110297387 0.1797734193547882 N
atom_frac 0.0989071297661397 0.8254175062236015 0.6797553450895961 N
atom_frac 0.9010697631356096 0.3254177579145007 0.8202389143300409 N
atom_frac 0.6661248837909711 0.9953872405074049 0.3182046204462239 N
atom_frac 0.3338937713603656 0.4953886218691252 0.1817980812027429 N
atom_frac 0.3338490317130649 0.0046086063433108 0.6817966974186261 N
atom_frac 0.6661286679370805 0.5046085542832798 0.8182041049972212 N
atom_frac 0.4618966097690633 0.8755578550665460 0.3444815153599308 N
atom_frac 0.5381078854195067 0.3755555056239145 0.1555243617135176 N
atom_frac 0.5380959525843564 0.1244393210658572 0.6555255064047570 N
atom_frac 0.4619127000329897 0.6244483169316837 0.8444736603743549 N
atom_frac 0.1118889451033596 0.2964735562305165 0.3478905786626143 N
atom_frac 0.8880756374089102 0.7964741180687581 0.1521159053321952 N
atom_frac 0.8880495368133057 0.7035249491743728 0.6521014301535785 N
atom_frac 0.1119710588485816 0.2035310337713838 0.8478883673167913 N
atom_frac 0.3457157189683216 0.5034120207734247 0.2965488644962164 O
atom_frac 0.6542816811502093 0.0034149817230258 0.2034539661719846 O
atom_frac 0.6543253907187108 0.4965718625924113 0.7034511772578186 O
atom_frac 0.3457239552032406 0.9965742187404842 0.7965499848095446 O
atom_frac 0.9871647422653569 0.4282389219742556 0.2725404654215354 O
atom_frac 0.0128383951293429 0.9282457838934590 0.2274550054695794 O
atom_frac 0.0128184924382850 0.5717848397514586 0.7274651501304136 O
atom_frac 0.9871784764692181 0.0717819657044103 0.7725367537453066 O
atom_frac 0.1679376202474359 0.6712401600088213 0.2948632405022593 O
atom_frac 0.8321042044927298 0.1712373032266328 0.2051472339722125 O
atom_frac 0.8321221052308589 0.3287457172660240 0.7051528319304836 O
atom_frac 0.1678268134141092 0.8287492386571812 0.7948442281879267 O
atom_frac 0.5123896673372741 0.7418723014832267 0.2687526169979008 O
atom_frac 0.4876267039717845 0.2418464577033816 0.2312457622518949 O
atom_frac 0.4875898372070680 0.2581414906433039 0.7312521056210172 O
atom_frac 0.5123808273266803 0.7581580294902465 0.7687487214836679 O
