#=======================================================
# FHI-aims file: geometry_Cu4P4H24C36N4O12.in
# Created using the Atomic Simulation Environment (ASE)
# Wed Dec  8 17:56:10 2021
#=======================================================
lattice_vector 7.7502792730000003 -0.0000077440000000 -1.4377002430000001 
lattice_vector -0.0000106340000000 8.0074312540000001 -0.0000154450000000 
lattice_vector 0.1072755900000000 -0.0000263470000000 13.7679275340000000 
atom_frac 0.8293328344889519 0.4536170758591282 0.0428219150872522 Cu
atom_frac 0.6706684992139318 0.9536142328596287 0.9571792820902091 Cu
atom_frac 0.1706678807949090 0.5463857761243177 0.9571802045061092 Cu
atom_frac 0.3293335145176286 0.0463848726032978 0.0428222467621566 Cu
atom_frac 0.9968055711808008 0.8146906948744148 0.0764116597948501 P
atom_frac 0.5031966444408624 0.3146874635184957 0.9235914967546961 P
atom_frac 0.0031964425524507 0.1853096594284551 0.9235898690590858 P
atom_frac 0.4968027824224067 0.6853103931034852 0.0764104882912022 P
atom_frac 0.1633021261862879 0.8645267726795824 0.2821901008355853 H
atom_frac 0.3367065731053033 0.3645303252823383 0.7178138269349857 H
atom_frac 0.8367011458422908 0.1354723327921619 0.7178137383902053 H
atom_frac 0.6633031911905081 0.6354712778658540 0.2821870586126209 H
atom_frac 0.1836891818174210 0.6788884771266055 0.4322023377936192 H
atom_frac 0.3163164577955869 0.1788922519503232 0.5677994013204426 H
atom_frac 0.8163063898399020 0.3211068818080491 0.5677985183482335 H
atom_frac 0.6836907095912964 0.8211068535193533 0.4322026656965434 H
atom_frac 0.1408558303715992 0.3962699350464263 0.4999477637388878 H
atom_frac 0.3591504082069292 0.8962731903059550 0.5000537993165822 H
atom_frac 0.8591422980372062 0.6037266727363004 0.5000548120417038 H
atom_frac 0.6408490688544006 0.1037271639840256 0.4999445593453515 H
atom_frac 0.0450065918987406 0.1021916676214190 0.4708194134848470 H
atom_frac 0.4549963434118070 0.6021952999327455 0.5291760605509951 H
atom_frac 0.9549929554266969 0.8978024424522106 0.5291738682272324 H
atom_frac 0.5450057004365549 0.3978038055230543 0.4708232924690990 H
atom_frac 0.9150286056607800 0.0075398723829636 0.3007472951131049 H
atom_frac 0.5849677245635193 0.5075351662904880 0.6992472944717604 H
atom_frac 0.0849722702477607 0.9924642284023976 0.6992432200430445 H
atom_frac 0.4150317424538060 0.4924614414820427 0.3007517894628648 H
atom_frac 0.8854542495740110 0.2011707670283727 0.1605623570723580 H
atom_frac 0.6145361631616172 0.7011645429587150 0.8394320490179368 H
atom_frac 0.1145439692021455 0.7988383291324085 0.8394336912271927 H
atom_frac 0.3854607571465395 0.2988333136432502 0.1605645900036805 H
atom_frac 0.0323882724346873 0.6769031087043091 0.1843759763878339 C
atom_frac 0.4676160533003327 0.1769013139935042 0.8156270737167972 C
atom_frac 0.9676137513408850 0.3230997432760744 0.8156248271918329 C
atom_frac 0.5323910940069897 0.8230965426409895 0.1843764438534521 C
atom_frac 0.1135952469178179 0.7374659874742376 0.2777235204657346 C
atom_frac 0.3864040892387593 0.2374646702401648 0.7222791444884537 C
atom_frac 0.8863951610553901 0.2625368644957006 0.7222775227983861 C
atom_frac 0.6136004812392032 0.7625319375510030 0.2777241039979118 C
atom_frac 0.1264322691560623 0.6350926119551802 0.3587149555296422 C
atom_frac 0.3735745301763275 0.1350932346029694 0.6412875327477111 C
atom_frac 0.8735581588916336 0.3649077423301109 0.6412846371764759 C
atom_frac 0.6264352040009770 0.8649071197124057 0.3587155286305901 C
atom_frac 0.0673421299549730 0.4679527734993201 0.3470003028657019 C
atom_frac 0.4326513986044561 0.9679521820699223 0.6530015464366273 C
atom_frac 0.9326482579302111 0.5320425854357040 0.6530021909438021 C
atom_frac 0.5673493467928310 0.0320481722265100 0.3469983973213147 C
atom_frac 0.0844041532276734 0.3529398870083755 0.4261733153571825 C
atom_frac 0.4155929390198809 0.8529387415701138 0.5738279217076538 C
atom_frac 0.9155939952606931 0.6470579696095413 0.5738278098701386 C
atom_frac 0.5844013643082491 0.1470616127178701 0.4261713493445002 C
atom_frac 0.0307887360247037 0.1899848999194873 0.4094194927784828 C
atom_frac 0.4692131186024896 0.6899877149480885 0.5905782443591578 C
atom_frac 0.9692107611043571 0.8100079613260790 0.5905774153191389 C
atom_frac 0.5307863484232913 0.3100151370241591 0.4094208395833547 C
atom_frac 0.9577742152339114 0.1361767139118513 0.3134338348726403 C
atom_frac 0.5422250503649479 0.6361768370173452 0.6865606235272922 C
atom_frac 0.0422201483227624 0.8638198938420417 0.6865610845102381 C
atom_frac 0.4577718799838380 0.3638222684221903 0.3134352902184788 C
atom_frac 0.9389538902768140 0.2446756506964931 0.2346081505190583 C
atom_frac 0.5610508128798489 0.7446738312579769 0.7653878454456446 C
atom_frac 0.0610430300381068 0.7553272012652528 0.7653884885088686 C
atom_frac 0.4389564247829725 0.2553277718749528 0.2346091446325219 C
atom_frac 0.9934505641210410 0.4123125349894893 0.2499643085071171 C
atom_frac 0.5065493592300997 0.9123117579440603 0.7500373750523012 C
atom_frac 0.0065437291647683 0.5876853216209810 0.7500356878193131 C
atom_frac 0.4934500977516691 0.0876873475107374 0.2499624341628959 C
atom_frac 0.9751567396009337 0.5209725756872033 0.1720659207464977 N
atom_frac 0.5248421034545814 0.0209687567319534 0.8279362246340939 N
atom_frac 0.0248401405599310 0.4790315251239862 0.8279336193927024 N
atom_frac 0.4751586118208239 0.9790278510517753 0.1720658949513805 N
atom_frac 0.9864438985199586 0.6973701614613077 0.9863540732586032 O
atom_frac 0.5135605660473885 0.1973672063502718 0.0136497812378806 O
atom_frac 0.0135593835526322 0.3026326905278936 0.0136490406944958 O
atom_frac 0.4864414376435421 0.8026306502750915 0.9863524728903316 O
atom_frac 0.1406008486630199 0.9433679007098876 0.0957737786859880 O
atom_frac 0.3594003437681579 0.4433627332285113 0.9042288157432098 O
atom_frac 0.8593998967325833 0.0566312047465942 0.9042261650703696 O
atom_frac 0.6405990529766046 0.5566338745606528 0.0957753451333829 O
atom_frac 0.8199691439856950 0.8946125461078938 0.0801641098216095 O
atom_frac 0.6800294229233117 0.3946133786117016 0.9198388450340931 O
atom_frac 0.1800328998677472 0.1053903058677363 0.9198352432032167 O
atom_frac 0.3199674070411760 0.6053894733714317 0.0801643214906562 O
