#=======================================================
# FHI-aims file: geometry_CuP2H10C8O6.in
# Created using the Atomic Simulation Environment (ASE)
# Wed Dec  8 17:56:10 2021
#=======================================================
lattice_vector 5.0356973079999996 0.0377310920000000 0.6588472410000000 
lattice_vector 1.3904952380000000 5.8644862629999999 1.5289464170000000 
lattice_vector 0.3282111600000000 -0.1499016600000000 9.7986988139999998 
atom_frac 0.0000034215316446 0.9999974784441862 0.9999996295484691 Cu
atom_frac 0.4517214226817853 0.9879839668660537 0.1822017468504455 P
atom_frac 0.5482802604543764 0.0120149938372407 0.8177960087800642 P
atom_frac 0.5445649666364574 0.7069081001589268 0.0803851901412287 H
atom_frac 0.4554327926111839 0.2930908664243718 0.9196118078634752 H
atom_frac 0.7181151848286264 0.2418430349272214 0.2983984716266121 H
atom_frac 0.2818822576355159 0.7581476500613608 0.7016080042514616 H
atom_frac 0.3216107101692388 0.5509511458135136 0.4104701008718337 H
atom_frac 0.6783869639479717 0.4490493899542829 0.5895215552898279 H
atom_frac 0.0345294668234715 0.7804102059932280 0.3801009744768534 H
atom_frac 0.9654626349520823 0.2195940056747716 0.6198996676807269 H
atom_frac 0.0824101755292261 0.6239464005281408 0.5552608334038212 H
atom_frac 0.9175907664678887 0.3760406513740833 0.4447378097135157 H
atom_frac 0.4732833922498541 0.9921013927810381 0.3622540849954703 C
atom_frac 0.5267155416702849 0.0078993925810735 0.6377476529503028 C
atom_frac 0.6202005359630006 0.1378843728788510 0.3877999357130406 C
atom_frac 0.3798168434735841 0.8621382120598967 0.6121920577591028 C
atom_frac 0.3482015107165777 0.8513005381638057 0.4751003756830698 C
atom_frac 0.6518040032963626 0.1487022299437442 0.5249138775175197 C
atom_frac 0.1875024652981166 0.6933994678230774 0.4542066217833919 C
atom_frac 0.8125003812897376 0.3066028542609658 0.5457895105797590 C
atom_frac 0.5848716376150093 0.7272614824448456 0.1719315114579273 O
atom_frac 0.4151224306937562 0.2727358676688497 0.8280680280332292 O
atom_frac 0.6264650163072149 0.1421905622816197 0.0810652023058793 O
atom_frac 0.3735286712326697 0.8578084633468067 0.9189330808038036 O
atom_frac 0.1503862576978747 0.0591608165072373 0.1532473585636112 O
atom_frac 0.8496135116696450 0.9408365912428422 0.8467558707797309 O
