#=======================================================
# FHI-aims file: geometry_Cu4H32C48I4N8.in
# Created using the Atomic Simulation Environment (ASE)
# Wed Dec  8 17:56:10 2021
#=======================================================
lattice_vector 8.9016760389999998 -0.0013169410000000 -0.0000045190000000 
lattice_vector -4.4520317960000000 8.5137543069999992 -0.0000029380000000 
lattice_vector -0.0000070240000000 -0.0000088500000000 14.0557493050000009 
atom_frac 0.8252408244743349 0.6503827578691528 0.2500034373007622 Cu
atom_frac 0.3252448197662828 0.6503881561567438 0.7499958310206765 Cu
atom_frac 0.1747629970617126 0.3496197661664482 0.7499950083192530 Cu
atom_frac 0.6747584142846107 0.3496131932202432 0.2500047489568402 Cu
atom_frac 0.9119359855853800 0.6121179006939458 0.0505690521378526 H
atom_frac 0.4119348341527100 0.6121213636629791 0.9494259872149938 H
atom_frac 0.2998522335805305 0.3884032403396347 0.5505755921107749 H
atom_frac 0.2001498252644325 0.6115960445160766 0.5505798754245959 H
atom_frac 0.0880615280964818 0.3878787495146838 0.9494279705736233 H
atom_frac 0.5880649779814958 0.3878776360455307 0.0505753042135737 H
atom_frac 0.7001466095922877 0.6116028066342736 0.4494214306030954 H
atom_frac 0.7998518008423473 0.3884088283257512 0.4494242618163610 H
atom_frac 0.8581263892837682 0.6899292315490586 0.8886780515103396 H
atom_frac 0.3581264140068042 0.6899309522815215 0.1113176972239955 H
atom_frac 0.1682680886791914 0.3105627603190014 0.3886005330853379 H
atom_frac 0.3317285677349063 0.6894397106652123 0.3886035106440248 H
atom_frac 0.1418751338036586 0.3100709429896257 0.1113189712031613 H
atom_frac 0.6418677292680428 0.3100656974102023 0.8886835942022555 H
atom_frac 0.8317267965949496 0.6894421114742142 0.6113979125322969 H
atom_frac 0.6682707599232599 0.3105628126796987 0.6113992036904179 H
atom_frac 0.7309325548482163 0.1017577331574842 0.8750158625604811 H
atom_frac 0.2309405826515770 0.1017641818153479 0.1249838272214134 H
atom_frac 0.6290525772276822 0.8979225224942341 0.3749273956465872 H
atom_frac 0.8709432367130887 0.1020819097691330 0.3749273070653345 H
atom_frac 0.2690621244086273 0.8982377420464546 0.1249847174130565 H
atom_frac 0.7690581060071083 0.8982348177156824 0.8750139069435717 H
atom_frac 0.3709466989226655 0.1020776517005828 0.6250731843294092 H
atom_frac 0.1290538440014898 0.8979206132267307 0.6250739843630910 H
atom_frac 0.7966694208179489 0.8944211064397508 0.2689942845390192 H
atom_frac 0.2966603692184011 0.8944229395184069 0.7310057788785259 H
atom_frac 0.9022507058570497 0.1056883935618771 0.7689198315410194 H
atom_frac 0.5977583432630880 0.8943098124358074 0.7689206099391370 H
atom_frac 0.2033382556104542 0.1055778944837584 0.7310055839867856 H
atom_frac 0.7033473587159591 0.1055784105537185 0.2689948011004404 H
atom_frac 0.0977574550492548 0.8943070837267156 0.2310800369842098 H
atom_frac 0.4022493331662459 0.1056891884884408 0.2310799700393175 H
atom_frac 0.8709217016410661 0.7023091234304530 0.0420287802706625 C
atom_frac 0.3709165631649681 0.7023090798302504 0.9579684047698649 C
atom_frac 0.1686517803639731 0.2981289815825932 0.5419826060308566 C
atom_frac 0.3313497715031203 0.7018738090377424 0.5419848770897601 C
atom_frac 0.1290797699431963 0.2976887019618388 0.9579696653476191 C
atom_frac 0.6290808990193212 0.2976852212364279 0.0420343095622542 C
atom_frac 0.8313504332223757 0.7018770659134006 0.4580151281367364 C
atom_frac 0.6686519061068237 0.2981334129504774 0.4580178372464160 C
atom_frac 0.8420717527069286 0.7474819161939338 0.9519304671053346 C
atom_frac 0.3420698493655863 0.7474799814179889 0.0480660068168319 C
atom_frac 0.0946685347954102 0.2529845934350162 0.4518742496934323 C
atom_frac 0.4053288747621265 0.7470191837795992 0.4518758757431840 C
atom_frac 0.1579275749447220 0.2525206071457973 0.0480672670605955 C
atom_frac 0.6579225829495241 0.2525154934383877 0.9519345731559808 C
atom_frac 0.9053263504796617 0.7470202783589386 0.5481249073768524 C
atom_frac 0.5946682574584017 0.2529856883648804 0.5481261271383957 C
atom_frac 0.7739342846016016 0.9372174935761777 0.0278801394682375 C
atom_frac 0.2739348005243727 0.9372174802670016 0.9721185043187788 C
atom_frac 0.8367267720470011 0.0628919476956824 0.5277715050954939 C
atom_frac 0.6632728124686622 0.9371128029123524 0.5277716320629295 C
atom_frac 0.2260570242398501 0.0627779811041904 0.9721183061462852 C
atom_frac 0.7260552818380289 0.0627732959453127 0.0278813641996578 C
atom_frac 0.1632742665681164 0.9371117504823587 0.4722297863344521 C
atom_frac 0.3367281746405054 0.0628885461170796 0.4722289479138624 C
atom_frac 0.6991003829692346 0.1195126930485344 0.1165226751575830 C
atom_frac 0.1990967604241902 0.1195136693848724 0.8834784244787315 C
atom_frac 0.5795999732966307 0.8803658743401072 0.6164328217382931 C
atom_frac 0.9204037497380709 0.1196378866630994 0.6164320608449145 C
atom_frac 0.3008960072464220 0.8804839569900124 0.8834779048167505 C
atom_frac 0.8009001142674989 0.8804794570172801 0.1165207325897342 C
atom_frac 0.4204044357310863 0.1196378243592804 0.3835684696927331 C
atom_frac 0.0796011952706977 0.8803646375477713 0.3835678076807553 C
atom_frac 0.7935195691345881 0.8647798745003001 0.9449354736224220 C
atom_frac 0.2935189105915441 0.8647826527422068 0.0550638639284813 C
atom_frac 0.9288134266361893 0.1355567811639347 0.4448581473596320 C
atom_frac 0.5711836938635600 0.8644477966883954 0.4448596076412982 C
atom_frac 0.2064762335912533 0.1352156008759451 0.0550636834461926 C
atom_frac 0.7064740577074248 0.1352116476278624 0.9449374274969029 C
atom_frac 0.0711859525232725 0.8644480913258903 0.5551417211647376 C
atom_frac 0.4288173447515575 0.1355559014896457 0.5551416837886478 C
atom_frac 0.7245307092642718 0.0567664917320556 0.2033085094878331 C
atom_frac 0.2245152433245110 0.0567755077963383 0.7966897344567271 C
atom_frac 0.6677562618297089 0.9431862054773180 0.7032300857241012 C
atom_frac 0.8322515433397798 0.0568142128979261 0.7032292418838679 C
atom_frac 0.2754795955718520 0.9432242876068739 0.7966899361318127 C
atom_frac 0.7754830638653871 0.9432317136646162 0.2033072882572142 C
atom_frac 0.3322514145996251 0.0568127954469375 0.2967704942543534 C
atom_frac 0.1677555971047724 0.9431859625118902 0.2967699151893726 C
atom_frac 0.0119598138620135 0.4999965712596436 0.2499070982851705 I
atom_frac 0.5119646621917583 0.5000027851511677 0.7500947515353005 I
atom_frac 0.9880411217383980 0.5000024286189486 0.7500906358805466 I
atom_frac 0.4880380358771462 0.4999997387136121 0.2499065398949298 I
atom_frac 0.8486160109189952 0.7640587723257608 0.1227651434482127 N
atom_frac 0.3486124235294952 0.7640620848246230 0.8772313416124857 N
atom_frac 0.0845419780472838 0.2361845051107067 0.6226933111877455 N
atom_frac 0.4154603211119720 0.7638172788520164 0.6226956622260501 N
atom_frac 0.1513854606643434 0.2359390530657919 0.8772325907174261 N
atom_frac 0.6513851416611159 0.2359369145348396 0.1227685269100718 N
atom_frac 0.9154612560017483 0.7638168442648094 0.3773058458844858 N
atom_frac 0.5845413049929534 0.2361875939883334 0.3773070521096145 N
