#=======================================================
# FHI-aims file: geometry_Cu2H8C8N4Cl2.in
# Created using the Atomic Simulation Environment (ASE)
# Wed Dec  8 17:56:10 2021
#=======================================================
lattice_vector 3.7378243570000000 0.0000226560000000 -0.0001398630000000 
lattice_vector 0.0000392330000000 6.4096883729999998 0.0000085030000000 
lattice_vector -0.0004178900000000 0.0000130420000000 11.5244706499999996 
atom_frac 0.5000009891876330 0.3331163742639519 0.5000001539463170 Cu
atom_frac 0.5000012712491041 0.3331392335636635 0.0000006159931445 Cu
atom_frac 0.6819780671474971 0.2611392615526995 0.2500074190419567 H
atom_frac 0.3180307728517206 0.2611457711949187 0.7499929951416462 H
atom_frac 0.2674931565488450 0.7637638465739657 0.4364799972926647 H
atom_frac 0.7325078075638556 0.7637650646932952 0.5635205428238166 H
atom_frac 0.7324585420335340 0.7637861479356258 0.9364773686482052 H
atom_frac 0.2675424215400141 0.7637848870661516 0.0635223037183792 H
atom_frac 0.1391202737715744 0.9513525826442261 0.2499994538515153 H
atom_frac 0.8608794275441481 0.9513521343899141 0.7499990739993051 H
atom_frac 0.5543567663718532 0.4141830344118134 0.2500022864132204 C
atom_frac 0.4456461854014293 0.4141886418631202 0.7499970341428578 C
atom_frac 0.3305881284273796 0.6927072967285284 0.3530487838031178 C
atom_frac 0.6694089764929173 0.6927133017946119 0.6469509933982494 C
atom_frac 0.6693918878266343 0.6927222433320848 0.8530480949196856 C
atom_frac 0.3305998659805310 0.6927186370107563 0.1469499467641455 C
atom_frac 0.2571905851865210 0.7962947050624861 0.2500053397726276 C
atom_frac 0.7428043454829591 0.7962982117922267 0.7499968877026433 C
atom_frac 0.4793853228294863 0.5000905412504864 0.3535765693498051 N
atom_frac 0.5206131504617416 0.5000960402089518 0.6464252275396659 N
atom_frac 0.5205935031469052 0.5001049796314803 0.8535661947628340 N
atom_frac 0.4794049697701651 0.5000987633522344 0.1464338666763396 N
atom_frac 0.0000091980699537 0.1164508218208837 0.5000107324760420 Cl
atom_frac 0.0000062378685826 0.1164716464440119 0.9999894451129522 Cl
