#=======================================================
# FHI-aims file: geometry_Cu4H28C36N24O8.in
# Created using the Atomic Simulation Environment (ASE)
# Wed Dec  8 17:56:10 2021
#=======================================================
lattice_vector 8.8255809579999998 0.0000131250000000 -2.5278891859999999 
lattice_vector 0.0000146710000000 10.2844269760000007 -0.0000020940000000 
lattice_vector -0.1317818490000000 -0.0000025990000000 12.2001670079999993 
atom_frac 0.9251770249060485 0.4167998985420167 0.1012343411663750 Cu
atom_frac 0.5748174246948921 0.9168021527519059 0.8987669319939757 Cu
atom_frac 0.0748157557493627 0.5831974273270787 0.8987661524572986 Cu
atom_frac 0.4251787288788691 0.0832010071759441 0.1012318015206830 Cu
atom_frac 0.6146326210274181 0.4349277021319934 0.0998342125970879 H
atom_frac 0.8853707381364159 0.9349272197143319 0.9001607162485713 H
atom_frac 0.3853668563745102 0.5650705960707539 0.9001594719915290 H
atom_frac 0.1146333101681662 0.0650691337954044 0.0998355547580303 H
atom_frac 0.4720265701571336 0.4189688399415060 0.2443041753093382 H
atom_frac 0.0279815229196316 0.9189750307766430 0.7556934349738428 H
atom_frac 0.5279775518094568 0.5810275135693885 0.7556970289255815 H
atom_frac 0.9720225499260023 0.0810291014848090 0.2443044804408459 H
atom_frac 0.4903666771385247 0.8359497636655249 0.2832186123785264 H
atom_frac 0.0096349710824484 0.3359517982407709 0.7167841913111133 H
atom_frac 0.5096374816525895 0.1640504792216078 0.7167850584698812 H
atom_frac 0.9903679897356881 0.6640494169907069 0.2832151330114741 H
atom_frac 0.6287382756494891 0.8530365495477740 0.1361573553057056 H
atom_frac 0.8712586226144338 0.3530387077791203 0.8638419443495026 H
atom_frac 0.3712579147666020 0.1469598039732389 0.8638438448242953 H
atom_frac 0.1287408916184916 0.6469595904242025 0.1361542068532771 H
atom_frac 0.7869286007704517 0.4402958863637209 0.4692492502985673 H
atom_frac 0.7130736530394656 0.9402956570056203 0.5307487300028839 H
atom_frac 0.2130733094035691 0.5597033841826544 0.5307555939553410 H
atom_frac 0.2869236002928943 0.0597055582324231 0.4692477724000029 H
atom_frac 0.8981284621068611 0.2950402091226393 0.4900506559371324 H
atom_frac 0.6018709024561133 0.7950373360502350 0.5099491348286805 H
atom_frac 0.1018733498414406 0.7049648954856949 0.5099476106780118 H
atom_frac 0.3981252020161321 0.2049619345011776 0.4900463098677720 H
atom_frac 0.7143461105966080 0.2978991090518477 0.3882461960342881 H
atom_frac 0.7856487717672280 0.7978938736662047 0.6117575849609481 H
atom_frac 0.2856535263966080 0.7021050232168946 0.6117581772146751 H
atom_frac 0.2143451454729259 0.2021044245454249 0.3882431441646120 H
atom_frac 0.6311806279961302 0.6452476167505452 0.1077932813714995 C
atom_frac 0.8688215576246420 0.1452488232020741 0.8922103211453064 C
atom_frac 0.3688201333177688 0.3547497091092068 0.8922105051759744 C
atom_frac 0.1311803279953807 0.8547504473439173 0.1077928786991649 C
atom_frac 0.5872041070124679 0.5229112586726501 0.1392077670702463 C
atom_frac 0.9127972879964473 0.0229123370006619 0.8607915313313725 C
atom_frac 0.4128000149508821 0.4770870395260756 0.8607934371643328 C
atom_frac 0.0872033996505976 0.9770879058896825 0.1392073219872785 C
atom_frac 0.5087391589619514 0.5128213665716002 0.2206385609735904 C
atom_frac 0.9912611207767766 0.0128251205012617 0.7793596832186652 C
atom_frac 0.4912592678007144 0.4871720699143013 0.7793606435468592 C
atom_frac 0.0087407157368560 0.9871731777000502 0.2206402278070954 C
atom_frac 0.4761797296774049 0.6262268644268191 0.2722070032635884 C
atom_frac 0.0238180091499558 0.1262317853922781 0.7277908200985479 C
atom_frac 0.5238221068346149 0.3737724061184123 0.7277929077620016 C
atom_frac 0.9761780953125764 0.8737733192226355 0.2722046245968954 C
atom_frac 0.5182481942378631 0.7490241164167909 0.2426159881576595 C
atom_frac 0.9817490994767297 0.2490269111704109 0.7573866363743849 C
atom_frac 0.4817525548022771 0.2509712647549306 0.7573869761854299 C
atom_frac 0.0182505129721946 0.7509713870344541 0.2426160924661502 C
atom_frac 0.5951391434059728 0.7578810781313976 0.1599598915739904 C
atom_frac 0.9048603694396178 0.2578811938832217 0.8400415564827313 C
atom_frac 0.4048581713146290 0.2421181924197811 0.8400407218528373 C
atom_frac 0.0951471745597985 0.7421171043115251 0.1599611764627227 C
atom_frac 0.7152550617418143 0.6549077248514550 0.0230764797728611 C
atom_frac 0.7847448308195411 0.1549072440279247 0.9769274705959747 C
atom_frac 0.2847457118409976 0.3450944627280634 0.9769281289784860 C
atom_frac 0.2152524838994410 0.8450929988671658 0.0230731428306825 C
atom_frac 0.8841235570731669 0.3929007695169275 0.3374500692529665 C
atom_frac 0.6158744064180155 0.8929047442365885 0.6625535631078138 C
atom_frac 0.1158760676608566 0.6070926669685476 0.6625534817931326 C
atom_frac 0.3841229205731054 0.1070984156904444 0.3374478725230575 C
atom_frac 0.8175675979680718 0.3551078135532676 0.4261909718050347 C
atom_frac 0.6824326786077676 0.8551076841635493 0.5738073892292307 C
atom_frac 0.1824353505682055 0.6448963187097617 0.5738075303123226 C
atom_frac 0.3175634504168556 0.1448925587321668 0.4261896998764954 C
atom_frac 0.8218574272523468 0.5693384042987899 0.0117437486622620 N
atom_frac 0.6781404647901256 0.0693382012975050 0.9882589381620832 N
atom_frac 0.1781399242943920 0.4306637832847073 0.9882593313782169 N
atom_frac 0.3218557378948717 0.9306630139432813 0.0117430841717905 N
atom_frac 0.8732113930960352 0.6172070608999147 0.9264318203775092 N
atom_frac 0.6267874761356182 0.1172084713556387 0.0735710853539473 N
atom_frac 0.1267847973152101 0.3827922096528412 0.0735693797519872 N
atom_frac 0.3732109997204772 0.8827937162262813 0.9264314079838627 N
atom_frac 0.8000919058045709 0.7251995486835907 0.8859833794053388 N
atom_frac 0.6999066038274862 0.2252027376408349 0.1140194888879691 N
atom_frac 0.1999042846115273 0.2747968048374219 0.1140178207246620 N
atom_frac 0.3000918474729843 0.7748004222846131 0.8859813600402333 N
atom_frac 0.7013606314936779 0.7518185767826037 0.9455480013169296 N
atom_frac 0.7986400504009550 0.2518195389417671 0.0544545065481117 N
atom_frac 0.2986389932306324 0.2481806937663648 0.0544555497281607 N
atom_frac 0.2013572274870228 0.7481807039527482 0.9455436402643829 N
atom_frac 0.3962752372875258 0.6159493132928373 0.3595959935581022 N
atom_frac 0.1037270943997370 0.1159452350406625 0.6404035975814396 N
atom_frac 0.6037288478480605 0.3840470402174815 0.6404027440626551 N
atom_frac 0.8962747421365620 0.8840394503458238 0.3595963134466729 N
atom_frac 0.9329503596240514 0.4210967170874438 0.2622903444556642 N
atom_frac 0.5670462383490218 0.9210989097318883 0.7377039983767377 N
atom_frac 0.0670491054943980 0.5789054704907812 0.7377025179275594 N
atom_frac 0.4329487049780028 0.0789032778522838 0.2622895664077163 N
atom_frac 0.3759510112419163 0.7176711105064655 0.4090594821624194 O
atom_frac 0.1240509571492723 0.2176825128813249 0.5909384293010335 O
atom_frac 0.6240508007193384 0.2823262153505440 0.5909387844540674 O
atom_frac 0.8759508179583194 0.7823284257899346 0.4090573706989390 O
atom_frac 0.3519446542592277 0.5068776687141109 0.3805036557229259 O
atom_frac 0.1480557674180503 0.0068899965940972 0.6194955022216249 O
atom_frac 0.6480617286046879 0.4931177124498871 0.6194971973115387 O
atom_frac 0.8519415472798854 0.9931228867719067 0.3805051112028367 O
