#=======================================================
# FHI-aims file: geometry_Cu2H12C16N24.in
# Created using the Atomic Simulation Environment (ASE)
# Wed Dec  8 17:56:10 2021
#=======================================================
lattice_vector 8.1946022759999995 -0.5426160130000000 -2.0517228390000000 
lattice_vector -4.2329799079999999 7.0285235159999999 -2.0896565310000002 
lattice_vector 0.2644581800000000 0.4882259740000000 10.0598359229999996 
atom_frac 0.1113713287087563 0.3610690807823431 0.2499239034080319 Cu
atom_frac 0.8886283925498831 0.6389304588403136 0.7500752927090205 Cu
atom_frac 0.8394826226026028 0.1284646582178297 0.8971252365211128 H
atom_frac 0.2315503438603416 0.4418071010912287 0.6026949415001965 H
atom_frac 0.1605149474621967 0.8715376889429720 0.1028721159413096 H
atom_frac 0.7684341017851112 0.5581841363092508 0.3973043848260147 H
atom_frac 0.2983315291127582 0.2290436662004751 0.8099541848595634 H
atom_frac 0.4192807615285687 0.9881387977655435 0.6896840723618567 H
atom_frac 0.7016777660312032 0.7709605397990915 0.1900499212862954 H
atom_frac 0.5807201825100068 0.0118652977207034 0.3103123432919190 H
atom_frac 0.4629513000942608 0.2998299830308611 0.2603153230353287 H
atom_frac 0.0392084057199682 0.7017880640237382 0.2394612408492521 H
atom_frac 0.5370518733927130 0.7001739787164993 0.7396854957461088 H
atom_frac 0.9607887435677683 0.2982112477131622 0.7605383774243465 H
atom_frac 0.5990285352997945 0.2576034925697570 0.0326698517013284 C
atom_frac 0.2246913441404530 0.0656520948847898 0.4669842259164270 C
atom_frac 0.4009770046445667 0.7424004800885700 0.9673334400940873 C
atom_frac 0.7753089736075580 0.9343487482027726 0.5330173507190565 C
atom_frac 0.7792480626637188 0.1877320333283592 0.9614676214372864 C
atom_frac 0.2263599462724955 0.3172012490178418 0.5382960094679846 C
atom_frac 0.2207548955596934 0.8122691099698827 0.0385325679848095 C
atom_frac 0.7736261718832157 0.6827931015869456 0.4617013224971915 C
atom_frac 0.3009231782378735 0.2525738497731211 0.9219388490331896 C
atom_frac 0.3306920458912402 0.8786216408219120 0.5777774029060724 C
atom_frac 0.6990800242023526 0.7474256338910622 0.0780650216616792 C
atom_frac 0.6693137583210673 0.1213800196617996 0.4222185041321040 C
atom_frac 0.3874014517729592 0.2911155953814700 0.1541856172905298 C
atom_frac 0.1366464279025408 0.7324875541851056 0.3456197521597062 C
atom_frac 0.6125985137024942 0.7088822846071280 0.8458172600992954 C
atom_frac 0.8633554155966724 0.2675136559825830 0.6543782356985587 C
atom_frac 0.8748271410746968 0.3000554954339307 0.1061355035398607 N
atom_frac 0.1940837181082387 0.2682082354723363 0.3936395303416163 N
atom_frac 0.1251752304093898 0.6999469458737410 0.8938658298936772 N
atom_frac 0.8059107124495455 0.7317881022546258 0.6063589156723452 N
atom_frac 0.7577416769146909 0.3475196289400486 0.1533775082082229 N
atom_frac 0.1940960346768109 0.1037937890980842 0.3463202246277604 N
atom_frac 0.2422623960329133 0.6524814474887535 0.8466248827777035 N
atom_frac 0.8059003811125508 0.8962040745240502 0.6536789432410899 N
atom_frac 0.6020365368365435 0.1569104418065592 0.9100825413177205 N
atom_frac 0.2466506691680196 0.1912368642225601 0.5896118205980088 N
atom_frac 0.3979647981779026 0.8430947401698109 0.0899191500250113 N
atom_frac 0.7533419229172440 0.8087606937334115 0.4103874979772471 N
atom_frac 0.2301403454781834 0.2956453567857693 0.1146958521482588 N
atom_frac 0.1808008850316369 0.6148628582976272 0.3852056357879619 N
atom_frac 0.7698610087394615 0.7043527456330951 0.8853053665780239 N
atom_frac 0.8191997752388789 0.3851383464145713 0.6147911155633069 N
atom_frac 0.1754295138589157 0.2720230009176845 0.9688972519307413 N
atom_frac 0.3031643138301234 0.7061518831570767 0.5309563776244275 N
atom_frac 0.8245718403587363 0.7279751015011796 0.0311039667955414 N
atom_frac 0.6968406883793109 0.2938482568869460 0.4690400440658423 N
atom_frac 0.4374657804205170 0.2656321827730749 0.0354219056128500 N
atom_frac 0.2300197345846868 0.9014023615481931 0.4642618538199129 N
atom_frac 0.5625382240225890 0.7343688213308043 0.9645814504299185 N
atom_frac 0.7699846123809237 0.0985990041803220 0.5357366769386402 N
