#=======================================================
# FHI-aims file: geometry_Cu2H26C26N8O8.in
# Created using the Atomic Simulation Environment (ASE)
# Wed Dec  8 17:56:10 2021
#=======================================================
lattice_vector 8.7184674990000008 -0.1271533570000000 0.9727433250000000 
lattice_vector 1.6669835959999999 8.0454994519999996 3.2144098630000002 
lattice_vector -0.1413598250000000 -0.1526147740000000 10.2303457649999991 
atom_frac 0.0000025614325025 0.4999976077124088 0.0000010035512688 Cu
atom_frac 0.4999992522578935 0.5000005267322861 0.4999999567685833 Cu
atom_frac 0.3643556757451591 0.4794215133466295 0.9085390094297806 H
atom_frac 0.6356446421592282 0.5205820549217178 0.0914609190070124 H
atom_frac 0.5599177115843971 0.6020558915476144 0.7368548004925727 H
atom_frac 0.4400773178882744 0.3979450398243927 0.2631415718916160 H
atom_frac 0.5933049716898395 0.7592874006603340 0.7966178100692146 H
atom_frac 0.4066937134375408 0.2407123275911260 0.2033776152608411 H
atom_frac 0.5104855349547677 0.8129412962915908 0.6288303670569063 H
atom_frac 0.4895154465703656 0.1870584823524197 0.3711658015727722 H
atom_frac 0.2682113060974274 0.9955387845167959 0.7182972817492440 H
atom_frac 0.7317870766324007 0.0044620829327897 0.2816929269737045 H
atom_frac 0.9978043957652788 0.8920304451386017 0.8592633304231111 H
atom_frac 0.0021986284744386 0.1079705975020673 0.1407322468247685 H
atom_frac 0.3179388662805779 0.0144885352193711 0.1980182338009087 H
atom_frac 0.6820593058895241 0.9855089359433363 0.8019896792971152 H
atom_frac 0.1863202856040472 0.5534552991367649 0.6810156932747375 H
atom_frac 0.8136774822194113 0.4465494323431469 0.3189821571810185 H
atom_frac 0.8908230010160382 0.6404685631849104 0.6944828228454439 H
atom_frac 0.1091741564213748 0.3595337623942496 0.3055197515268943 H
atom_frac 0.7856652571644532 0.7125920798276721 0.5351330718893977 H
atom_frac 0.2143345411949937 0.2874138970474007 0.4648632167031365 H
atom_frac 0.8672367455318405 0.8517866521496414 0.5861619896820399 H
atom_frac 0.1327642481718883 0.1482131450958661 0.4138351494290617 H
atom_frac 0.9496378781980467 0.7790362572410527 0.2992903988035849 H
atom_frac 0.0503638233204882 0.2209660947171983 0.7007097802423061 H
atom_frac 0.2642175983969465 0.6803340209214922 0.2454601013016031 H
atom_frac 0.7357809837107326 0.3196608742210003 0.7545427173078849 H
atom_frac 0.2983676719165446 0.6041541798873523 0.8804761726589446 C
atom_frac 0.7016337804391455 0.3958431157439363 0.1195197538893139 C
atom_frac 0.5155646541733958 0.7279561384257605 0.7365927512089100 C
atom_frac 0.4844405025513865 0.2720400284909771 0.2634061102109087 C
atom_frac 0.2432072865466921 0.8748278009947584 0.7786400192580558 C
atom_frac 0.7567836164407069 0.1251768165105176 0.2213575422616785 C
atom_frac 0.1129737901558557 0.8214636852666641 0.8499218626075874 C
atom_frac 0.8870244363195710 0.1785385445990286 0.1500747752853186 C
atom_frac 0.2182396204256847 0.2525167891969815 0.9566818788956651 C
atom_frac 0.7817635301203084 0.7474781695275964 0.0433204853502147 C
atom_frac 0.3636230014041644 0.1221488201311729 0.9779680970914059 C
atom_frac 0.6363827524574577 0.8778387798567522 0.0220373092449860 C
atom_frac 0.4658472304427973 0.1132573772054428 0.8650415918537959 C
atom_frac 0.5341456122394775 0.8867436711875168 0.1349627715635718 C
atom_frac 0.3989088508098249 0.0087211849533304 0.1112191749230007 C
atom_frac 0.6010866317238666 0.9912725605074683 0.8887911420291486 C
atom_frac 0.4419348061154481 0.2324303734344610 0.7181804555984641 C
atom_frac 0.5580671856220436 0.7675708207241808 0.2818239695731178 C
atom_frac 0.1688470968162007 0.6072806914470733 0.5697154527630417 C
atom_frac 0.8311541992850807 0.3927179666003154 0.4302869029551672 C
atom_frac 0.8841126306182260 0.7245693903647564 0.5866060134284793 C
atom_frac 0.1158864675846800 0.2754403203301479 0.4133911235269068 C
atom_frac 0.0473432238780020 0.7265705340609684 0.3688567122577524 C
atom_frac 0.9526574872650431 0.2734367095167371 0.6311400690252994 C
atom_frac 0.2024818590396578 0.6730100878966496 0.3436498569559419 C
atom_frac 0.7975164039715494 0.3269921977735422 0.6563496923812266 C
atom_frac 0.1484256710393126 0.6517113195221711 0.9128227765170818 N
atom_frac 0.8515782416268110 0.3482909526181288 0.0871713524584762 N
atom_frac 0.3584919721065489 0.7354347370938044 0.7985879306749056 N
atom_frac 0.6415056363245527 0.2645587983385482 0.2014095428369487 N
atom_frac 0.2772476497853945 0.5988659956080368 0.4698959885449694 N
atom_frac 0.7227509932152573 0.4011289925419490 0.5301116824716274 N
atom_frac 0.0285513090066942 0.6847541342021584 0.5118679839687984 N
atom_frac 0.9714510272550780 0.3152506608598459 0.4881294121233494 N
atom_frac 0.1794694953219889 0.3096195339079913 0.0589958713690777 O
atom_frac 0.8205347928132626 0.6903817106431943 0.9410092971021268 O
atom_frac 0.1454595845830297 0.3025796030972003 0.8457133803924105 O
atom_frac 0.8545437952889401 0.6974141048202609 0.1542883775720512 O
atom_frac 0.4590064830310112 0.3802790102010932 0.7017692335462939 O
atom_frac 0.5409957258538681 0.6197209145489353 0.2982336148624398 O
atom_frac 0.4212816532981520 0.1816968661395251 0.6227094402819729 O
atom_frac 0.5787189670037876 0.8183055629307031 0.3772957047619343 O
