#=======================================================
# FHI-aims file: geometry_Cu4H8C8S4N12.in
# Created using the Atomic Simulation Environment (ASE)
# Wed Dec  8 17:56:10 2021
#=======================================================
lattice_vector 6.1574221939999996 -0.0000443980000000 0.0002363450000000 
lattice_vector 0.0000579440000000 6.9364250230000000 -0.6252593060000000 
lattice_vector -0.0000170430000000 -0.1333326290000000 9.5050507230000001 
atom_frac 0.1950823964694450 0.5762656529173852 0.4734387523652759 Cu
atom_frac 0.6950758475607087 0.9237207968449112 0.5265717030379095 Cu
atom_frac 0.8049106047198508 0.4237304723670546 0.5265696449546839 Cu
atom_frac 0.3049285220165814 0.0762737432764098 0.4734292252188227 Cu
atom_frac 0.1997932295302220 0.7664023551937545 0.9196818869616054 H
atom_frac 0.6998446308478988 0.7335827275435134 0.0803292948758880 H
atom_frac 0.8001997715812620 0.2335993618132335 0.0803174095417560 H
atom_frac 0.3001694830699221 0.2664133776174892 0.9196780485231035 H
atom_frac 0.8464199375167640 0.8543409752596745 0.8456635143153763 H
atom_frac 0.3464883760909672 0.6456832761406587 0.1543376915170498 H
atom_frac 0.1535795599202316 0.1456460639014737 0.1543221916245160 H
atom_frac 0.6535257374914070 0.3543504407567396 0.8456763343384781 H
atom_frac 0.3568559686206783 0.8564588361772039 0.7327288111728906 C
atom_frac 0.8568321447529784 0.6435489108619805 0.2672318656062558 C
atom_frac 0.6431532731489753 0.1435312520109733 0.2672655116730951 C
atom_frac 0.1431478641900625 0.3564178788253330 0.7327504046269980 C
atom_frac 0.6724364693393881 0.8440923340921602 0.8302793840879378 C
atom_frac 0.1724560785987208 0.6559194655794656 0.1697149271181431 C
atom_frac 0.3275597800171965 0.1558918585668607 0.1697082388291804 C
atom_frac 0.8275417947856596 0.3440722280204653 0.8302879181953033 C
atom_frac 0.1511736172748144 0.8737859311155772 0.6112073701716840 S
atom_frac 0.6512319951179393 0.6262133802240440 0.3887514055195568 S
atom_frac 0.8488210079059328 0.1262127976777094 0.3887864693600279 S
atom_frac 0.3487723744242288 0.3737824413982480 0.6112411904586993 S
atom_frac 0.3380275868468132 0.7964097026979287 0.8632634297274751 N
atom_frac 0.8380067826500976 0.7035798656200568 0.1367390703802513 N
atom_frac 0.6619800308402546 0.2035848171940130 0.1367364450455284 N
atom_frac 0.1619813462956685 0.2964234163399270 0.8632666416231134 N
atom_frac 0.5717750931980348 0.8881089422394693 0.7105215365501041 N
atom_frac 0.0717214871682899 0.6119085768263587 0.2894623775556938 N
atom_frac 0.4282292761954877 0.1119058269914817 0.2894817744860276 N
atom_frac 0.9282633934542587 0.3881162764708819 0.7105405452407896 N
atom_frac 0.5368042094860926 0.7875314588997993 0.9262480294976499 N
atom_frac 0.0367312760478029 0.7124709818073569 0.0737997566577064 N
atom_frac 0.4632147765765566 0.2124675535188771 0.0737605570970672 N
atom_frac 0.9632471083185692 0.2875613521339985 0.9262173353296179 N
