#=======================================================
# FHI-aims file: geometry_Cu2H14C16S2O4.in
# Created using the Atomic Simulation Environment (ASE)
# Wed Dec  8 17:56:10 2021
#=======================================================
lattice_vector 3.8938550329999999 0.0626279930000000 -0.0000486450000000 
lattice_vector -0.2227008610000000 5.2632428899999999 0.0001090830000000 
lattice_vector -0.0001669510000000 0.0003148960000000 18.6633173859999992 
atom_frac 0.7694506056840140 0.8539327986112966 0.5243700290771685 Cu
atom_frac 0.2695019985556044 0.3539380366117584 0.4756364754296455 Cu
atom_frac 0.5949867728063368 0.4983838590156324 0.6093126073318231 H
atom_frac 0.0949789174117797 0.9983747175553862 0.3906918348830004 H
atom_frac 0.6174318010330422 0.6765469113607167 0.7328277150482805 H
atom_frac 0.1174321983892526 0.1765568004245495 0.2671757839195479 H
atom_frac 0.0239591450052359 0.0382034258546042 0.8116245726770474 H
atom_frac 0.5239997070338660 0.5381992985653171 0.1883746982842851 H
atom_frac 0.9978674829378776 0.8584002359701017 0.6879208363043574 H
atom_frac 0.4979136383128449 0.3583795077895501 0.3120771622448117 H
atom_frac 0.3254666132569639 0.8203394590389975 0.9554076576230699 H
atom_frac 0.8255180939836962 0.3203415559200877 0.0445925660640611 H
atom_frac 0.7133394438826670 0.9726330945164747 0.9233620286385148 H
atom_frac 0.2133844555518536 0.4726310528823134 0.0766320796294551 H
atom_frac 0.7243384045124374 0.6619099412429391 0.9633256864509080 H
atom_frac 0.2243704339874029 0.1619204354468167 0.0366769335577146 H
atom_frac 0.2925654400320639 0.1669969081069880 0.6412416275093449 C
atom_frac 0.7925479040380167 0.6669787840475225 0.3587612887336249 C
atom_frac 0.4683475306538156 0.3979699440331643 0.6537261901875198 C
atom_frac 0.9683139376196477 0.8979592047454189 0.3462781571938223 C
atom_frac 0.4836597565094820 0.4969012172047018 0.7226565912805256 C
atom_frac 0.9836818873519704 0.9968904630861957 0.2773477512248661 C
atom_frac 0.3259329130406101 0.3680510031021385 0.7801006330107400 C
atom_frac 0.8259493593429212 0.8680718901119705 0.2199001067998337 C
atom_frac 0.1486303841204730 0.1376603746673340 0.7672029531287522 C
atom_frac 0.6486521112627558 0.6376644561746829 0.2327909827322117 C
atom_frac 0.1324417393357251 0.0381334375310232 0.6983122032042957 C
atom_frac 0.6324811878709939 0.5381195648910406 0.3016828118442874 C
atom_frac 0.3451238321180909 0.4668122939595279 0.8545675743170591 C
atom_frac 0.8451601387557730 0.9667981567287925 0.1454203234847995 C
atom_frac 0.5754137687403542 0.7908926304802435 0.9303909567056651 C
atom_frac 0.0754739506275328 0.2908969488762949 0.0696104509530002 C
atom_frac 0.2758360094912433 0.0287960118260600 0.5542776808075516 S
atom_frac 0.7758448159934730 0.5287937679415720 0.4457246204686314 S
atom_frac 0.2088702719124171 0.3619619082456751 0.9064391033339946 O
atom_frac 0.7089575775118108 0.8619742702906378 0.0935557395499131 O
atom_frac 0.5319379029381182 0.6865967235122812 0.8589293451181348 O
atom_frac 0.0320036112879691 0.1865905251268956 0.1410730551545143 O
