#=======================================================
# FHI-aims file: geometry_Cu4P4H16C20N4O12.in
# Created using the Atomic Simulation Environment (ASE)
# Wed Dec  8 17:56:10 2021
#=======================================================
lattice_vector 4.7848028160000000 -0.0020442980000000 0.0011108580000000 
lattice_vector -0.0044930120000000 8.5553153010000003 -2.5853955260000001 
lattice_vector 0.0036116710000000 0.1954762260000000 15.1556917930000008 
atom_frac 0.9379365391646743 0.6671652214043107 0.0100196062500828 Cu
atom_frac 0.4391497162691778 0.8331871094429815 0.4897236294767708 Cu
atom_frac 0.0620444229295387 0.3328794939289352 0.9899301487964393 Cu
atom_frac 0.5608164879724741 0.1667504022675388 0.5102626037876306 Cu
atom_frac 0.4376910832891241 0.5231552582639554 0.8874050248032501 P
atom_frac 0.9380598977532274 0.9779454135950092 0.6125364498324400 P
atom_frac 0.5623817648743454 0.4768396313185619 0.1125777923206357 P
atom_frac 0.0618916663494034 0.0219883763690873 0.3874590468874643 P
atom_frac 0.6260380929904983 0.2901337463139698 0.7128955377166050 H
atom_frac 0.1267392202935085 0.2103385665737960 0.7871358010327395 H
atom_frac 0.3742522450305046 0.7099890530020048 0.2870675149285802 H
atom_frac 0.8728551885128296 0.7898086519317361 0.2128255299056150 H
atom_frac 0.2158759010642655 0.4282071009506935 0.5095481632250198 H
atom_frac 0.7163501238287254 0.0714228260051115 0.9903487545500552 H
atom_frac 0.7839920970817362 0.5717662560603217 0.4904540893261212 H
atom_frac 0.2839253756017541 0.9285244728890589 0.0096727763546696 H
atom_frac 0.0005373691550190 0.6589655939192623 0.6228515484674800 H
atom_frac 0.5001588825587858 0.8410765566232357 0.8769728325539103 H
atom_frac 0.9994246686137841 0.3410075453549481 0.3771612171372141 H
atom_frac 0.4997655847190713 0.1589559692783951 0.1230494066966159 H
atom_frac 0.0890103457058160 0.6935084565766874 0.7915973052819110 H
atom_frac 0.5893192330613815 0.8066470246549075 0.7082452655560800 H
atom_frac 0.9108659748346356 0.3064285680523114 0.2084093058414425 H
atom_frac 0.4107953270746377 0.1932896215754596 0.2917803982798333 H
atom_frac 0.3673560205536432 0.4969766683898486 0.7660721353524591 C
atom_frac 0.8679719284607116 0.0033509641507763 0.7338786989122992 C
atom_frac 0.6326520067123482 0.5030138416732157 0.2339482088750842 C
atom_frac 0.1320590543017843 0.9965976356859939 0.2661344942057156 C
atom_frac 0.4833391157878850 0.3743473230281822 0.6976229866251984 C
atom_frac 0.9840380436206360 0.1259654173245721 0.8023881368097815 C
atom_frac 0.5167923268841150 0.6257271001513516 0.3023582179504415 C
atom_frac 0.0157799040336570 0.8741065870440821 0.1975933379393099 C
atom_frac 0.2553756625621162 0.4533824165333088 0.5827948539606778 C
atom_frac 0.7557608776622332 0.0465304332048859 0.9171062740424316 C
atom_frac 0.7446365799062705 0.5466227722640726 0.4171969825382504 C
atom_frac 0.2442367443244535 0.9534977532746824 0.0829020232257848 C
atom_frac 0.1342014251173183 0.5790792538038688 0.6463637534369651 C
atom_frac 0.6341798203231123 0.9209722680420214 0.8534967109593481 C
atom_frac 0.8658065982500033 0.4209009124820896 0.3536488878923976 C
atom_frac 0.3657154014383011 0.0790754321369960 0.1465261395464522 C
atom_frac 0.1868213835581614 0.5995177797962939 0.7393138635076680 C
atom_frac 0.6871505373847456 0.9006719757793464 0.7605631024527568 C
atom_frac 0.8131281097888206 0.4004495348421671 0.2606979093972370 C
atom_frac 0.3129034414884445 0.0992916006140661 0.2394599018160263 C
atom_frac 0.4246561803338905 0.3521854388035806 0.6081079670244234 N
atom_frac 0.9254013946212468 0.1478842843805951 0.8918993314382532 N
atom_frac 0.5754815041676977 0.6478574739890275 0.3918711608563611 N
atom_frac 0.0744374524640676 0.8521888592886028 0.1080836557674516 N
atom_frac 0.7565394171351870 0.5477102777920068 0.8967968918556010 O
atom_frac 0.2569747609912980 0.9546792599270620 0.6024428412517936 O
atom_frac 0.2435898522877977 0.4522582663061813 0.1031629519736299 O
atom_frac 0.7429350172356947 0.0452492239988942 0.3975286597446511 O
atom_frac 0.3450969797292558 0.3715523666448917 0.9077207863920618 O
atom_frac 0.8450196830407322 0.1296919101942251 0.5925645830068544 O
atom_frac 0.6550719786967677 0.6284406007474955 0.0922960063246521 O
atom_frac 0.1549297888391621 0.8702452220724766 0.4074380822078821 O
atom_frac 0.2763152660492452 0.6708532934113055 0.9386482880929704 O
atom_frac 0.7767575342477784 0.8299485661556575 0.5613278864879873 O
atom_frac 0.7239728377183995 0.3291811527304703 0.0613960260741209 O
atom_frac 0.2230456333356727 0.1700121709490645 0.4387144463561937 O
