#=======================================================
# FHI-aims file: geometry_Fe4Cu4H48C56I4N8.in
# Created using the Atomic Simulation Environment (ASE)
# Wed Dec  8 17:56:10 2021
#=======================================================
lattice_vector 9.4117561690000002 -0.0000282620000000 0.0000124830000000 
lattice_vector -0.0000405020000000 11.4375737199999996 -4.6636925339999999 
lattice_vector 0.0000165580000000 0.0702537490000000 12.4990852520000004 
atom_frac 0.0310615184791274 0.8640489443311382 0.6980037376375848 Fe
atom_frac 0.4689424202909648 0.8640471258604168 0.1980044320199498 Fe
atom_frac 0.9689403701244572 0.1359511519130052 0.3019918818682187 Fe
atom_frac 0.5310552182924225 0.1359511914279423 0.8019961241311294 Fe
atom_frac 0.9458892157358890 0.5063513381079403 0.1115381741521233 Cu
atom_frac 0.5541112932313295 0.5063515111865940 0.6115392199686130 Cu
atom_frac 0.0541105478522823 0.4936469889916992 0.8884607855405452 Cu
atom_frac 0.4458874078668486 0.4936494377497100 0.3884599179333677 Cu
atom_frac 0.9220727298068779 0.7183964349462927 0.3257317233855873 H
atom_frac 0.5779309754967626 0.7183932316039193 0.8257322618664066 H
atom_frac 0.0779206587719941 0.2816001573194384 0.6742649888904283 H
atom_frac 0.4220719755988965 0.2816059727187011 0.1742662250763516 H
atom_frac 0.2948471998645417 0.7068788986641582 0.5240833252590564 H
atom_frac 0.2051517481592242 0.7068810248970507 0.0240836182216740 H
atom_frac 0.7051493762469503 0.2931246868152186 0.4759135961649505 H
atom_frac 0.7948501404358054 0.2931190419290104 0.9759167906588574 H
atom_frac 0.2067875966148378 0.4421112771521152 0.2094624069151791 H
atom_frac 0.2932126703451913 0.4421091134185675 0.7094669035776705 H
atom_frac 0.7932132294866818 0.5578896766924474 0.7905359327575143 H
atom_frac 0.7067913432425568 0.5578891989825294 0.2905344508020420 H
atom_frac 0.8239509664871888 0.8494935218521037 0.5323346609783643 H
atom_frac 0.6760506494844732 0.8494929118134426 0.0323299908131533 H
atom_frac 0.1760434845907852 0.1505056481284157 0.4676694135688991 H
atom_frac 0.3239501765940175 0.1505036559555961 0.9676707126079053 H
atom_frac 0.8564140711463608 0.0546647505056228 0.7124472486307952 H
atom_frac 0.6435906952520368 0.0546639702069101 0.2124441798943054 H
atom_frac 0.1435835674267167 0.9453326699555760 0.2875569731864403 H
atom_frac 0.3564122558312306 0.9453326073734091 0.7875549270683495 H
atom_frac 0.1368194400132836 0.0922356968253126 0.7565615428714949 H
atom_frac 0.3631872124789694 0.0922351051379025 0.2565621061769505 H
atom_frac 0.8631781985743813 0.9077626351720912 0.2434366185922203 H
atom_frac 0.6368168011240199 0.9077658438115250 0.7434370317246251 H
atom_frac 0.2804776131276795 0.9101071554512784 0.6012525151481399 H
atom_frac 0.2195238749774261 0.9101067161695086 0.1012550223884574 H
atom_frac 0.7195179004747273 0.0898938179922197 0.3987426316084709 H
atom_frac 0.7804790761309661 0.0898959774014756 0.8987447664720989 H
atom_frac 0.0264918461574553 0.6202128230809479 0.6234665517261817 H
atom_frac 0.4735070687577974 0.6202118994973276 0.1234675708886783 H
atom_frac 0.9735111049399662 0.3797872486507503 0.3765330589251478 H
atom_frac 0.5264895073160716 0.3797863883703202 0.8765377746372212 H
atom_frac 0.7950214371615940 0.7405854345255208 0.7295264136288824 H
atom_frac 0.7049796101251002 0.7405840559449572 0.2295277993875900 H
atom_frac 0.2049836389395096 0.2594155046205060 0.2704743207308554 H
atom_frac 0.2950169659530459 0.2594142466317352 0.7704751514509383 H
atom_frac 0.8834804608011239 0.9317702591313617 0.9096160833536475 H
atom_frac 0.6165237232949109 0.9317693107237235 0.4096186063654274 H
atom_frac 0.1165267403061847 0.0682306947289604 0.0903822563185557 H
atom_frac 0.3834760402921590 0.0682298739789644 0.5903830734940598 H
atom_frac 0.1717078710263493 0.9306490742135621 0.9106625618009262 H
atom_frac 0.3282948301973647 0.9306491725725081 0.4106650523864559 H
atom_frac 0.8282982675860282 0.0693527617622536 0.0893345068925697 H
atom_frac 0.6717038708894023 0.0693517371396766 0.5893404713485070 H
atom_frac 0.2598545567415583 0.7375642845291995 0.7335048620355952 H
atom_frac 0.2401460435093341 0.7375656918070773 0.2335080170770993 H
atom_frac 0.7401494568579209 0.2624349296020795 0.2664920284488304 H
atom_frac 0.7598515950672604 0.2624334634722700 0.7664984521572864 H
atom_frac 0.0180223300558353 0.6775794612254202 0.3422660109348002 C
atom_frac 0.4819805587318554 0.6775773778457292 0.8422669602976427 C
atom_frac 0.9819742460322940 0.3224188756723693 0.6577313522998766 C
atom_frac 0.5180202673636388 0.3224226938807178 0.1577326503538501 C
atom_frac 0.0991592076520504 0.7308524742108490 0.4418803359025320 C
atom_frac 0.4008416641428880 0.7308517393020825 0.9418811504188870 C
atom_frac 0.9008363059432370 0.2691484747175750 0.5581188019996901 C
atom_frac 0.5991580994533975 0.2691491998308210 0.0581195839412559 C
atom_frac 0.2228297988458934 0.6715439430998131 0.4508363274985641 C
atom_frac 0.2771705309889113 0.6715434741137259 0.9508366882015765 C
atom_frac 0.7771689022629147 0.3284587651697137 0.5491610666749481 C
atom_frac 0.7228313576075465 0.3284565976153501 0.0491629224498311 C
atom_frac 0.1767211802281139 0.5245304524358191 0.2769855936710357 C
atom_frac 0.3232784959999293 0.5245275699069509 0.7769889620212640 C
atom_frac 0.8232785833724490 0.4754705014061216 0.7230127460017428 C
atom_frac 0.6767202050922093 0.4754724969112304 0.2230114468595090 C
atom_frac 0.0633150000266482 0.8429134390984955 0.5313195476691491 C
atom_frac 0.4366872183301992 0.8429123384129726 0.0313197742405862 C
atom_frac 0.9366805135714812 0.1570875196359580 0.4686779937748328 C
atom_frac 0.5633136077560792 0.1570859788832664 0.9686807819102512 C
atom_frac 0.9241948617203231 0.8911749624535190 0.5678955170756979 C
atom_frac 0.5758069878601829 0.8911738422110675 0.0678932569470589 C
atom_frac 0.0758006518770458 0.1088277163900457 0.4321066664727980 C
atom_frac 0.4241938382197289 0.1088227304609859 0.9321066482448758 C
atom_frac 0.9417561731451439 0.9990227828691334 0.6637352390642308 C
atom_frac 0.5582473299269494 0.9990215709239937 0.1637337798535513 C
atom_frac 0.0582446529521050 0.0009781562663917 0.3362654952958338 C
atom_frac 0.4417534961639403 0.0009776235873460 0.8362663035476103 C
atom_frac 0.0905558289542938 0.0187098694535024 0.6870387532319528 C
atom_frac 0.4094493728427153 0.0187086341267175 0.1870389839742473 C
atom_frac 0.9094428721438846 0.9812910794828013 0.3129603846700277 C
atom_frac 0.5905535782547060 0.9812914376049806 0.8129606266770824 C
atom_frac 0.1660526791126458 0.9224888863838248 0.6060893502649308 C
atom_frac 0.3339499610378027 0.9224872729744862 0.1060903907965240 C
atom_frac 0.8339438969924799 0.0775129544713735 0.3939069202001734 C
atom_frac 0.6660529900613736 0.0775136661662899 0.8939103435633771 C
atom_frac 0.0268405541986354 0.6997710754707641 0.6999981701646122 C
atom_frac 0.4731587761667626 0.6997701501645398 0.1999991893804706 C
atom_frac 0.9731613344006718 0.3002290060643418 0.2999998440285482 C
atom_frac 0.5268399249182495 0.3002298921385674 0.8000052106459137 C
atom_frac 0.9040829616876634 0.7636032781160936 0.7570665717242167 C
atom_frac 0.5959181868081272 0.7636031050799947 0.2570686251411802 C
atom_frac 0.0959221144145346 0.2363968034268922 0.2429314424687093 C
atom_frac 0.4040794517773492 0.2363969421235056 0.7429349766561658 C
atom_frac 0.9512550890301411 0.8651238896451544 0.8507534540501142 C
atom_frac 0.5487466035757150 0.8651234834434051 0.3507555146899791 C
atom_frac 0.0487499870766612 0.1348770691129317 0.1492440873931287 C
atom_frac 0.4512520975089701 0.1348756963536459 0.6492469633987099 C
atom_frac 0.1033761277922096 0.8643994231912376 0.8516384704379407 C
atom_frac 0.3966262109223706 0.8643989918970265 0.3516398268520505 C
atom_frac 0.8966278858164854 0.1356015453702568 0.1483574745471473 C
atom_frac 0.6033756776683815 0.1356010602199902 0.6483629767158448 C
atom_frac 0.1502948325409434 0.7621132906223594 0.7579282800628493 C
atom_frac 0.3497048305547850 0.7621134948162551 0.2579307673698710 C
atom_frac 0.8497059935492857 0.2378841788768611 0.2420679594629292 C
atom_frac 0.6502938705334033 0.2378874197989447 0.7420739581359612 C
atom_frac 0.9022552783934472 0.6722193381989784 0.0328418470344189 I
atom_frac 0.5977437475502894 0.6722206090701733 0.5328416151910461 I
atom_frac 0.0977476727011251 0.3277807237266899 0.9671593600751508 I
atom_frac 0.4022549535496366 0.3277812072752084 0.4671586464195060 I
atom_frac 0.0575821341593041 0.5753891340550864 0.2595731787108592 N
atom_frac 0.4424180410610389 0.5753859730104978 0.7595754051100556 N
atom_frac 0.9424144419320012 0.4246100751547957 0.7404245100032655 N
atom_frac 0.5575827850298507 0.4246132215008415 0.2404246782911131 N
atom_frac 0.2612102220780272 0.5690080538117357 0.3700275066865685 N
atom_frac 0.2387884470918422 0.5690073902080215 0.8700286714955967 N
atom_frac 0.7387895415334994 0.4309955218694981 0.6299710111954299 N
atom_frac 0.7612123790036518 0.4309926815184256 0.1299709391558893 N
