#=======================================================
# FHI-aims file: geometry_Cu2H12C18S2N6.in
# Created using the Atomic Simulation Environment (ASE)
# Wed Dec  8 17:56:10 2021
#=======================================================
lattice_vector 3.6880064760000000 -0.0088330300000000 -0.0003310750000000 
lattice_vector -1.8785802180000000 10.5352222940000004 -2.1802304530000001 
lattice_vector 0.0000489330000000 -0.0340700090000000 11.2300587759999999 
atom_frac 0.0956320120987113 0.7182600897826458 0.3620483439477837 Cu
atom_frac 0.6263786359598528 0.7179840572450401 0.8620140177155025 Cu
atom_frac 0.0062762229407480 0.8706443552091223 0.1739472120159107 H
atom_frac 0.8679313749324037 0.8714184751456596 0.6739323985884839 H
atom_frac 0.2100123377204852 0.3129699131680042 0.2498549759501572 H
atom_frac 0.1012327549735517 0.3138773450757383 0.7503200677705237 H
atom_frac 0.4409431687301506 0.4802841925307817 0.4316367620683366 H
atom_frac 0.0329924274651958 0.4801881091691981 0.9318180670710917 H
atom_frac 0.6207428113331730 0.4234921636884862 0.6231593408275488 H
atom_frac 0.7964769192566836 0.4220410971008449 0.1230252284044511 H
atom_frac 0.5607736603451271 0.1949813146141252 0.6365763528598054 H
atom_frac 0.6316201030475740 0.1931169574240953 0.1362182171710060 H
atom_frac 0.3747346619517628 0.9650480059840726 0.5361086025122361 H
atom_frac 0.5950639724094627 0.9636754027203052 0.0360542610416061 H
atom_frac 0.0934955932670149 0.6612987189187149 0.6199927087158132 C
atom_frac 0.5687208992617059 0.6608353548169886 0.1198659491559866 C
atom_frac 0.1018455933416006 0.9461771002187329 0.2529049850057489 C
atom_frac 0.8473459899512790 0.9465682242362586 0.7529210284692169 C
atom_frac 0.2523247028703395 0.1582374704222289 0.3401271325831631 C
atom_frac 0.9056869811398157 0.1583219949600050 0.8402536864076708 C
atom_frac 0.2863123034364604 0.2878599391829438 0.3342952936697259 C
atom_frac 0.9994033698682045 0.2881468313730622 0.8345510527687453 C
atom_frac 0.4159953850185262 0.3803377564562210 0.4355241394796820 C
atom_frac 0.9599367942080191 0.3800790037961263 0.9356511697117756 C
atom_frac 0.5174015792530042 0.3480804527963669 0.5451927745109517 C
atom_frac 0.8261028106038850 0.3470571643240773 0.0451242607618596 C
atom_frac 0.4867925472426720 0.2226048901519987 0.5533355834805392 C
atom_frac 0.7336354711598502 0.2213719530806983 0.0531996113134383 C
atom_frac 0.3527019103666262 0.1259350086443760 0.4513613163417249 C
atom_frac 0.7733131011960026 0.1252809298509661 0.9513278190411684 C
atom_frac 0.3079707436646472 0.9956243872090267 0.4532997263590205 C
atom_frac 0.6908336157721280 0.9948446580089934 0.9532567505357222 C
atom_frac 0.0784168365925168 0.6218146509793882 0.7541211821740319 S
atom_frac 0.5433892864851941 0.6216639736450204 0.2541349681607272 S
atom_frac 0.0972914952050770 0.6860165991331326 0.5221011402011300 N
atom_frac 0.5905200216862170 0.6854819008194113 0.0219583910005881 N
atom_frac 0.1828281979348033 0.9056994199326381 0.3563190599677740 N
atom_frac 0.7277323077584512 0.9054515481565415 0.8563324702745663 N
atom_frac 0.1277675431828342 0.0644312665091533 0.2406556692101844 N
atom_frac 0.9375520372858831 0.0650407316830339 0.7407436016024536 N
