#=======================================================
# FHI-aims file: geometry_Cu2H8C10S2N6.in
# Created using the Atomic Simulation Environment (ASE)
# Wed Dec  8 17:56:10 2021
#=======================================================
lattice_vector 3.7055619240000000 -0.0292515780000000 -0.0000511400000000 
lattice_vector -0.9095085810000000 8.2256994260000003 0.0001217560000000 
lattice_vector -0.0001705790000000 0.0001359640000000 10.5307918340000004 
atom_frac 0.7894203585962316 0.9079870552503023 0.0234768497927220 Cu
atom_frac 0.2105279187807554 0.0920331587934271 0.5234648683312388 Cu
atom_frac 0.6129434996162786 0.8521852170697529 0.2950317161560605 H
atom_frac 0.3870702412704645 0.1478019382688770 0.7950382013979294 H
atom_frac 0.6191839932813750 0.6216080412415507 0.4501253139632341 H
atom_frac 0.3808718930308714 0.3783717055030493 0.9501273566588680 H
atom_frac 0.7951552643569502 0.3543613325848654 0.3658041654744792 H
atom_frac 0.2049079379087927 0.6456248747419973 0.8658097144083855 H
atom_frac 0.9365485930975697 0.3429395574080658 0.1309442026661500 H
atom_frac 0.0634642418635920 0.6570724702894921 0.6309576096256181 H
atom_frac 0.2808050268583956 0.0859151536237235 0.2335934408789129 C
atom_frac 0.7191588160911238 0.9140896594037000 0.7336025252098111 C
atom_frac 0.6813014801749802 0.7334395210608519 0.2654819870305474 C
atom_frac 0.3186950644859153 0.2665546286991188 0.7654765159647354 C
atom_frac 0.6868999438976218 0.6051844283367559 0.3508464986744003 C
atom_frac 0.3131229798111477 0.3948082087060882 0.8508541507687825 C
atom_frac 0.7808820773645807 0.4592534224603995 0.3046355932221659 C
atom_frac 0.2191495592343102 0.5407480674745599 0.8046408571698223 C
atom_frac 0.8606860808538670 0.4533939838506100 0.1749971741059753 C
atom_frac 0.1393289621958189 0.5466105169729970 0.6750043761403433 C
atom_frac 0.3258870959025799 0.0732718215256227 0.0789292730959303 S
atom_frac 0.6740841518931830 0.9267442091411338 0.5789471230749613 S
atom_frac 0.2464608000607953 0.0967081865682786 0.3448896233497934 N
atom_frac 0.7534935004181945 0.9032819720859918 0.8448897949849866 N
atom_frac 0.7598380069308774 0.7196333011059366 0.1414263297499616 N
atom_frac 0.2401481144033184 0.2803649124444476 0.6414340204936481 N
atom_frac 0.8508605133636068 0.5786202248220956 0.0953302542057060 N
atom_frac 0.1491262277041940 0.4213868089632485 0.5953404472113277 N
