#=======================================================
# FHI-aims file: geometry_Cu4H24C36I4N24.in
# Created using the Atomic Simulation Environment (ASE)
# Wed Dec  8 17:56:10 2021
#=======================================================
lattice_vector 7.3233847279999997 -0.0000099880000000 0.0000100910000000 
lattice_vector -0.0000201420000000 10.9785169479999993 -3.8709834590000001 
lattice_vector 0.0000179860000000 0.0527329300000000 13.1986380939999997 
atom_frac 0.9171339302827590 0.5281000120857298 0.8906053088937042 Cu
atom_frac 0.4171347988498937 0.9718998470563633 0.6093957547111586 Cu
atom_frac 0.0828684494920680 0.4718999996393975 0.1093943364760506 Cu
atom_frac 0.5828621189640303 0.0281001537614571 0.3906061604255909 Cu
atom_frac 0.1028923500212215 0.2576261848339102 0.2737870101501869 H
atom_frac 0.6028921021152555 0.2423749219593462 0.2262122204376596 H
atom_frac 0.8971072987834248 0.7423738414251561 0.7262096088685510 H
atom_frac 0.3971102776595501 0.7576259957201402 0.7737884482902828 H
atom_frac 0.4445690892501517 0.5483405798592429 0.5874524911711632 H
atom_frac 0.9445677118146208 0.9516593402338599 0.9125462753987179 H
atom_frac 0.5554291940637838 0.4516603487188321 0.4125459077945379 H
atom_frac 0.0554319369844194 0.0483406751228799 0.0874526133843005 H
atom_frac 0.8119862971175493 0.0979621380546263 0.2182529441104606 H
atom_frac 0.3119913967707006 0.4020393465653953 0.2817468352137880 H
atom_frac 0.1880078897224422 0.9020387759832791 0.7817484812096468 H
atom_frac 0.6880082520246091 0.5979606615231320 0.7182535667454176 H
atom_frac 0.5362265882903047 0.2133787462393357 0.5943757325764096 H
atom_frac 0.0362290790984758 0.2866228740543520 0.9056254102672554 H
atom_frac 0.4637730605123879 0.7866249002030729 0.4056257364631719 H
atom_frac 0.9637692041968863 0.7133734884108309 0.0943754377884361 H
atom_frac 0.2157905344892654 0.5244100827945531 0.7482454256532520 H
atom_frac 0.7157873475180737 0.9755912391066489 0.7517541018741625 H
atom_frac 0.7842118452855331 0.4755908348849331 0.2517552430746903 H
atom_frac 0.2842109357995993 0.0244096967396317 0.2482427839153515 H
atom_frac 0.6009956647625145 0.3487313856550642 0.8090309988658504 H
atom_frac 0.1009984654033147 0.1512694432104951 0.6909698128241145 H
atom_frac 0.3990067150104011 0.6512704343446745 0.1909714498083731 H
atom_frac 0.8990011833957325 0.8487305721462448 0.3090290759589038 H
atom_frac 0.9140603746868835 0.3705073637892939 0.6490774723777974 C
atom_frac 0.4140595388813750 0.1294922133947054 0.8509232511611130 C
atom_frac 0.0859392741065577 0.6294926406651272 0.3509236861695016 C
atom_frac 0.5859360134475085 0.8705059827813528 0.1490751040837567 C
atom_frac 0.9948390379289620 0.2384091964727944 0.3216307612092706 C
atom_frac 0.4948370453569808 0.2615907989131401 0.1783690594023426 C
atom_frac 0.0051647073328667 0.7615889997107460 0.6783675940315207 C
atom_frac 0.5051639689197245 0.7384073827314738 0.8216323221921796 C
atom_frac 0.8350000489854139 0.2491516767213255 0.4676856467631296 C
atom_frac 0.3350000802199916 0.2508471174791964 0.0323140659647194 C
atom_frac 0.1650009653006066 0.7508474290481857 0.5323129752491127 C
atom_frac 0.6650022995529667 0.7491528906118251 0.9676863359931290 C
atom_frac 0.3193591008646450 0.4963482515991018 0.5801971835770060 C
atom_frac 0.8193565889060466 0.0036511600853686 0.9198021209239824 C
atom_frac 0.6806391824455603 0.5036526697107534 0.4198027285648749 C
atom_frac 0.1806416944060629 0.9963479529498686 0.0801949879134370 C
atom_frac 0.1042535107867408 0.3761710548206594 0.5008396193504367 C
atom_frac 0.6042499045939139 0.1238261379944490 0.9991608786119811 C
atom_frac 0.8957488689918023 0.6238298701270395 0.4991595362013186 C
atom_frac 0.3957483787014766 0.8761693185163754 0.0008389460855299 C
atom_frac 0.8501271083187589 0.1597569352378727 0.2966698417857002 C
atom_frac 0.3501295222546830 0.3402446153269524 0.2033306562142485 C
atom_frac 0.1498725404783983 0.8402439824391195 0.7033308269435991 C
atom_frac 0.6498701265369390 0.6597535735846378 0.7966692122047688 C
atom_frac 0.6483319203886850 0.2721697317934328 0.6336925012966006 C
atom_frac 0.1483315499441745 0.2278302738376325 0.8663079965704269 C
atom_frac 0.3516690939009878 0.7278330050617473 0.3663087009722121 C
atom_frac 0.8516640023754080 0.7721660922591698 0.1336920948985353 C
atom_frac 0.2093236895050907 0.4868287741420474 0.6613352042550317 C
atom_frac 0.7093216284564435 0.0131713463905996 0.8386644763961043 C
atom_frac 0.7906773247809157 0.5131712375818369 0.3386644411153981 C
atom_frac 0.2906780203463200 0.9868295821887187 0.1613339225689145 C
atom_frac 0.6835013764011109 0.3386769815528795 0.7383592175887443 C
atom_frac 0.1835025197231701 0.1613230882402021 0.7616412453174632 C
atom_frac 0.3165023688606469 0.6613239324937441 0.2616422077266095 C
atom_frac 0.8164957635796171 0.8386751006701375 0.2383586231022363 C
atom_frac 0.2461503791421080 0.5594417707153954 0.9641318495272840 I
atom_frac 0.7461535218486405 0.9405596102120130 0.5358668912298015 I
atom_frac 0.7538520006251587 0.4405618502907487 0.0358749156275948 I
atom_frac 0.2538447614727204 0.0594431448112118 0.4641305280999006 I
atom_frac 0.7500666110057352 0.1662102294637578 0.3882900223151324 N
atom_frac 0.2500680739867178 0.3337911385570038 0.1117105751500418 N
atom_frac 0.2499344032820972 0.8337915978029503 0.6117109131835791 N
atom_frac 0.7499329402955441 0.6662088658986606 0.8882905833965751 N
atom_frac 0.0687847607943866 0.4088650490477690 0.6098431588467577 N
atom_frac 0.5687815101824610 0.0911329922835975 0.8901568845550614 N
atom_frac 0.9312189844673926 0.5911349590444958 0.3901572431104158 N
atom_frac 0.4312181386110226 0.9088652002620917 0.1098422272758627 N
atom_frac 0.7970038095906418 0.2921906042203801 0.5758917624010137 N
atom_frac 0.2970044105911285 0.2078096690038009 0.9241093442669025 N
atom_frac 0.2029958392083415 0.7078121289994499 0.4241101964565672 N
atom_frac 0.7029938727079497 0.7921876066839603 0.0758910139707966 N
atom_frac 0.9850210619568858 0.2962044804713031 0.4316833800548494 N
atom_frac 0.4850192920323125 0.2037936705584684 0.0683174299521809 N
atom_frac 0.0149813178160727 0.7037955276197111 0.5683170219029989 N
atom_frac 0.5149817222481304 0.7962045183543653 0.9316824384661616 N
atom_frac 0.8499641675885102 0.4000643610638265 0.7480168693854238 N
atom_frac 0.3499636551813338 0.0999350991879453 0.7519839178679176 N
atom_frac 0.1500395776732475 0.5999365529827970 0.2519845559299370 N
atom_frac 0.6500346281251765 0.9000640029449727 0.2480154607337823 N
atom_frac 0.2527451512908669 0.4274705841357049 0.4797660913837519 N
atom_frac 0.7527422498843350 0.0725271504137410 0.0202334363406322 N
atom_frac 0.7472544975118752 0.5725312503979794 0.5202333309394547 N
atom_frac 0.2472573989054823 0.9274683170006528 0.9797641185919232 N
