#=======================================================
# FHI-aims file: geometry_Cu2H18C22N12.in
# Created using the Atomic Simulation Environment (ASE)
# Wed Dec  8 17:56:10 2021
#=======================================================
lattice_vector 5.5818430230000002 0.0028320090000000 1.4701835139999999 
lattice_vector 0.7700872290000000 8.8238746030000001 3.0721248200000000 
lattice_vector -0.1529222300000000 0.1134673560000000 10.6005574829999993 
atom_frac 0.7908546325716657 0.4544814573838352 0.4122146216150995 Cu
atom_frac 0.2091792314446792 0.5455236652153630 0.5877918553477812 Cu
atom_frac 0.9068026448392670 0.1216975222840020 0.4268033761073583 H
atom_frac 0.0932209886247009 0.8782884908378107 0.5731911908676750 H
atom_frac 0.1548091696156462 0.9086173493031141 0.3596278975376563 H
atom_frac 0.8452045782102644 0.0913733333558397 0.6403563103879579 H
atom_frac 0.6409037349802986 0.8951257951727811 0.1303210443992101 H
atom_frac 0.3590945463470234 0.1048874692342281 0.8696700843551145 H
atom_frac 0.3902309552593478 0.1061373662179577 0.2002518876240132 H
atom_frac 0.6097719689071895 0.8938701077795556 0.7997487654440292 H
atom_frac 0.2423435669303942 0.7941943293220459 0.1323068503152456 H
atom_frac 0.7576697000137287 0.2058226253634814 0.8676613203443324 H
atom_frac 0.1218910673930580 0.6697301008256461 0.2941848390302511 H
atom_frac 0.8781263739862268 0.3302844631713882 0.7057928789864223 H
atom_frac 0.0738045490813164 0.8059219995178493 0.9253438610856507 H
atom_frac 0.9261425233786794 0.1940574413272032 0.0746349283776908 H
atom_frac 0.7449690251343595 0.6488221892683013 0.8905169454085498 H
atom_frac 0.2549259745454576 0.3511565298091098 0.1095192725347758 H
atom_frac 0.5567870337656585 0.4774197213199329 0.1556519937154660 H
atom_frac 0.4431274691819596 0.5225915276651988 0.8444098257757773 H
atom_frac 0.6287288349938153 0.1280667889212168 0.3202167505432385 C
atom_frac 0.3712985045012687 0.8719202332331192 0.6797873868322597 C
atom_frac 0.8462800865905534 0.0716752996688399 0.3631834936557468 C
atom_frac 0.1537402197484851 0.9283209706746975 0.6368066754391465 C
atom_frac 0.9874459527132873 0.9526467321172228 0.3236899167264014 C
atom_frac 0.0125557662656846 0.0473540975818594 0.6762986788588919 C
atom_frac 0.9162319456729333 0.8868372521561978 0.2402851141467510 C
atom_frac 0.0837881678509405 0.1131601676084912 0.7597038052316452 C
atom_frac 0.7002733871542193 0.9443113667073459 0.1955781313169639 C
atom_frac 0.2997211326359803 0.0557030418821185 0.8044122441825012 C
atom_frac 0.5584623851508965 0.0632848644536494 0.2347875391775389 C
atom_frac 0.4415551172453361 0.9367193035912674 0.7652054467112922 C
atom_frac 0.4662371554177581 0.2447069446608268 0.3675613804670377 C
atom_frac 0.5337881176459546 0.7552948257986856 0.6324415993654712 C
atom_frac 0.0737932956052845 0.7559338169544743 0.2020476069724638 C
atom_frac 0.9262100981785083 0.2440649349626227 0.7979262649471012 C
atom_frac 0.9547389073366545 0.7253374832185742 0.0001689829228368 C
atom_frac 0.0452170582046563 0.2746473052182167 0.9998343804433037 C
atom_frac 0.7840957530430901 0.6462509998132971 0.9863775212549726 C
atom_frac 0.2158660538008590 0.3537482076089801 0.0136500969949651 C
atom_frac 0.6905959840476755 0.5584307014067207 0.1203142715298000 C
atom_frac 0.3093735389283125 0.4415640037576053 0.8797107513253484 C
atom_frac 0.5087569619759761 0.3352689092433678 0.4349125950972664 N
atom_frac 0.4912769362748790 0.6647226361236703 0.5650921518264911 N
atom_frac 0.2943370916368480 0.4127717317546740 0.4654240294542121 N
atom_frac 0.7056929070398112 0.5872231474166367 0.5345859522156361 N
atom_frac 0.1329105483258815 0.3718055789957758 0.4154304113372831 N
atom_frac 0.8671154132247736 0.6281926946578551 0.5845800898375803 N
atom_frac 0.2364034552679967 0.2689178628592047 0.3531676803210644 N
atom_frac 0.7636218177957160 0.7310839076003075 0.6468352995114373 N
atom_frac 0.9591375929713306 0.6828614062958424 0.1355481775895910 N
atom_frac 0.0408701127994320 0.3171348942547212 0.8644399569281521 N
atom_frac 0.7958556451853623 0.5812773232094626 0.2113199860084833 N
atom_frac 0.2041447501419782 0.4187379271333355 0.7886929143356554 N
