#=======================================================
# FHI-aims file: geometry_Cu8H64C112N40.in
# Created using the Atomic Simulation Environment (ASE)
# Wed Dec  8 17:56:10 2021
#=======================================================
lattice_vector 7.6503645929999999 -0.0000352860000000 -0.0000303700000000 
lattice_vector -0.0000801360000000 17.8546365609999995 0.0000590030000000 
lattice_vector -0.0000803990000000 0.0000647410000000 20.2903881129999988 
atom_frac 0.0478179458608636 0.1005210223434503 0.0828937086773394 Cu
atom_frac 0.9522054521975603 0.3994786361504197 0.5828944859100034 Cu
atom_frac 0.5477981557731582 0.8994734936742718 0.4171050606751622 Cu
atom_frac 0.4521930707640536 0.6005211332691187 0.9171060798306174 Cu
atom_frac 0.9521972091916309 0.8994752802727676 0.9171059588834044 Cu
atom_frac 0.0478005529649010 0.6005182265281090 0.4171046887912199 Cu
atom_frac 0.4521973924117119 0.1005267294534562 0.5828946068448319 Cu
atom_frac 0.5478024774356668 0.3994785297728498 0.0828955590677865 Cu
atom_frac 0.9700098215099402 0.1298009853111281 0.2287542147888715 H
atom_frac 0.0299852712102862 0.3701953750292049 0.7287553587277672 H
atom_frac 0.4700091738280463 0.8701935192486657 0.2712472969713248 H
atom_frac 0.5299763727265443 0.6298027255434772 0.7712429574033665 H
atom_frac 0.0299870337704178 0.8701986777495064 0.7712429885137341 H
atom_frac 0.9700155054828840 0.6298042880284526 0.2712448016458779 H
atom_frac 0.5299837600912839 0.1298061437970758 0.7287518777021874 H
atom_frac 0.4700191754517676 0.3701963774252447 0.2287572029640828 H
atom_frac 0.9586305655894447 0.2366810541274801 0.3031142191300661 H
atom_frac 0.0413582473141503 0.2633153270118384 0.8031174972555206 H
atom_frac 0.4586352657706668 0.7633145256298802 0.1968852871940143 H
atom_frac 0.5413591748947438 0.7366844987579169 0.6968838099958888 H
atom_frac 0.0413675968019263 0.7633180488607038 0.6968819984877258 H
atom_frac 0.9586412222894012 0.7366854561915233 0.1968851273338857 H
atom_frac 0.5413550538972913 0.2366834571677146 0.8031158588572537 H
atom_frac 0.4586402946483971 0.2633134840631187 0.3031158575364898 H
atom_frac 0.1119850775250768 0.2630380871399183 0.0695683036267880 H
atom_frac 0.8880406546642661 0.2369594276880846 0.5695668768934611 H
atom_frac 0.6119608557500628 0.7369544421639844 0.4304350934092087 H
atom_frac 0.3880306508734607 0.7630372877375960 0.9304305397148200 H
atom_frac 0.8880222347445965 0.7369593356287325 0.9304284068537856 H
atom_frac 0.1119548935333938 0.7630385551126935 0.4304362405424131 H
atom_frac 0.3880582207331641 0.2630480213300358 0.5695630956069024 H
atom_frac 0.6119570545044366 0.2369612551477402 0.0695666635773406 H
atom_frac 0.0981340617379374 0.3780387540385775 0.1375237703374950 H
atom_frac 0.9018852560192484 0.1219599481962916 0.6375230538820774 H
atom_frac 0.5981112309226476 0.6219542806084205 0.3624771210146279 H
atom_frac 0.4018801545098967 0.8780385021913870 0.8624758827053824 H
atom_frac 0.9018732505272381 0.6219592288122585 0.8624719544530566 H
atom_frac 0.0981011423111511 0.8780402749008471 0.3624800635335887 H
atom_frac 0.4019078455598901 0.3780476228051982 0.6375215608473043 H
atom_frac 0.5980997081083287 0.1219589205158726 0.1375227991108829 H
atom_frac 0.2134699640177971 0.4489211388758533 0.2124360545191948 H
atom_frac 0.7865273999475448 0.0510747797381157 0.7124349121745085 H
atom_frac 0.7134649878033059 0.5510757121484174 0.2875661677990777 H
atom_frac 0.2865339730890356 0.9489243348655947 0.7875646647890308 H
atom_frac 0.7865308126442939 0.5510785241925331 0.7875611487892799 H
atom_frac 0.2134655340132241 0.9489248832933228 0.2875682052525619 H
atom_frac 0.2865331746443545 0.4489228307397113 0.7124359639506893 H
atom_frac 0.7134641893627460 0.0510775685049154 0.2124345098857887 H
atom_frac 0.2203552220305909 0.5549431916582961 0.2900232324833993 H
atom_frac 0.7796411762635100 0.9450545972049795 0.7900251994872319 H
atom_frac 0.7203607723485562 0.4450576071640525 0.2099755605410537 H
atom_frac 0.2796404613633143 0.0549450502410380 0.7099753425380940 H
atom_frac 0.7796494760249713 0.4450575915750504 0.7099739708276901 H
atom_frac 0.2203609075821120 0.0549445057659383 0.2099779179551718 H
atom_frac 0.2796360829770421 0.5549409357197064 0.7900270640509534 H
atom_frac 0.7203590082326199 0.9450579732874758 0.2900243249796263 H
atom_frac 0.8418781714859875 0.3416517317547445 0.3429912414984316 H
atom_frac 0.1581075581684600 0.1583421198720031 0.8429954796235535 H
atom_frac 0.3418863700156649 0.6583422663885443 0.1570054511120560 H
atom_frac 0.6581163823878382 0.8416598476096979 0.6570061771266681 H
atom_frac 0.1581278336512567 0.6583456910131174 0.6570049761359870 H
atom_frac 0.8418879900637108 0.8416586633200323 0.1570081306483786 H
atom_frac 0.6581183280820184 0.3416590769109078 0.8429952021067637 H
atom_frac 0.3418830871708351 0.1583381352059874 0.3429949689382923 H
atom_frac 0.8643195542305192 0.4533855164070245 0.4152069172536700 H
atom_frac 0.1356663861585332 0.0466094917486330 0.9152107523360088 H
atom_frac 0.3643343511633502 0.5466119309293731 0.0847878711589658 H
atom_frac 0.6356708047907487 0.9533929470989615 0.5847918229161878 H
atom_frac 0.1356851438026325 0.5466096660277344 0.5847937359830696 H
atom_frac 0.8643356976553206 0.9533890511526054 0.0847899008870456 H
atom_frac 0.6356703469239731 0.4533894123736529 0.9152117963714660 H
atom_frac 0.3643312790334647 0.0466055957987095 0.4152098159952546 H
atom_frac 0.5473301992498703 0.0956595542850920 0.9690574112586675 C
atom_frac 0.4526751727253212 0.4043345033176422 0.4690580504321887 C
atom_frac 0.0473199875465227 0.9043414152423350 0.5309389854080352 C
atom_frac 0.9526775009594103 0.5956627331227793 0.0309439022768245 C
atom_frac 0.4526797274123453 0.9043490700537548 0.0309412705700254 C
atom_frac 0.5473256039112397 0.5956612391951237 0.5309406314202648 C
atom_frac 0.9526755606631880 0.0956621683606187 0.4690596964137940 C
atom_frac 0.0473206617011925 0.4043531721914917 0.9690611864876291 C
atom_frac 0.7078953820666455 0.0951441861400184 0.0017666436339567 C
atom_frac 0.2921093181788166 0.4048538203315032 0.5017688635165670 C
atom_frac 0.2078793172846503 0.9048543230856509 0.4982296478448448 C
atom_frac 0.7921123073330703 0.5951481167139718 0.9982327015198608 C
atom_frac 0.2921158516486102 0.9048588374206831 0.9982305596803941 C
atom_frac 0.7078927655798067 0.5951419221856327 0.4982293254936536 C
atom_frac 0.7921070809998270 0.0951464601079621 0.5017685411272410 C
atom_frac 0.2078858552650615 0.4048633079767966 0.0017709087250353 C
atom_frac 0.3929157189922278 0.1004816588671957 0.0056270980867978 C
atom_frac 0.6070903695197386 0.3995157595306650 0.5056297990738301 C
atom_frac 0.8929014751270968 0.8995147812759611 0.4943697472657220 C
atom_frac 0.1070861469382294 0.6004837659579320 0.9943726906305841 C
atom_frac 0.6070929004768360 0.8995196844435824 0.9943725694495031 C
atom_frac 0.3929051786378536 0.6004833434451982 0.4943683899168363 C
atom_frac 0.1070927658967022 0.1004832015383244 0.5056289345704459 C
atom_frac 0.8929080942305416 0.3995226180158226 0.0056314124672951 C
atom_frac 0.5363142605368977 0.0907137286804200 0.9000124016248776 C
atom_frac 0.4636909673741911 0.4092847501962922 0.4000105807767371 C
atom_frac 0.0363082179938843 0.9092905577694734 0.5999883976595798 C
atom_frac 0.9636907218549310 0.5907186906427101 0.0999918977307530 C
atom_frac 0.4636930519591970 0.9092993762678251 0.0999902229404412 C
atom_frac 0.5363163448972230 0.5907098721685955 0.5999890867771499 C
atom_frac 0.9636899444865464 0.0907135859136758 0.4000112698529321 C
atom_frac 0.0363048265708414 0.4093005751434118 0.9000117124874337 C
atom_frac 0.9970206781396340 0.1854594808027343 0.2093626456622815 C
atom_frac 0.0029857711739183 0.3145387004210534 0.7093645253009840 C
atom_frac 0.4970127363853861 0.8145356905837103 0.2906389469430196 C
atom_frac 0.5029797534053059 0.6854598535058471 0.7906371599185462 C
atom_frac 0.0029800985172770 0.8145401822674357 0.7906340648019923 C
atom_frac 0.9970163126458046 0.6854604025587958 0.2906361279204432 C
atom_frac 0.5029867331812241 0.1854645325517622 0.7093607205828436 C
atom_frac 0.4970197161865073 0.3145398095402996 0.2093654646741143 C
atom_frac 0.9893920592975931 0.2466316588754012 0.2514331153951872 C
atom_frac 0.0105969743965062 0.2533600563613732 0.7514329094108377 C
atom_frac 0.4893950229835865 0.7533623622351939 0.2485650044838721 C
atom_frac 0.5106018110419014 0.7466368474510927 0.7485643630163851 C
atom_frac 0.0106034888496467 0.7533674441040361 0.7485640879070844 C
atom_frac 0.9893972666662947 0.7466401667619779 0.2485672509513961 C
atom_frac 0.5106005251681437 0.2466361806620654 0.7514331845084216 C
atom_frac 0.4894028870102218 0.2533611353802812 0.2514353045238168 C
atom_frac 0.0761768403646172 0.2599601960382357 0.1215209369740649 C
atom_frac 0.9238369125524811 0.2400397423924474 0.6215210780410061 C
atom_frac 0.5761555125105956 0.7400355522136195 0.3784808743310820 C
atom_frac 0.4238309808051709 0.7599593548324248 0.8784794027889903 C
atom_frac 0.9238265505395447 0.7400377867976999 0.8784767591874002 C
atom_frac 0.0761534071375678 0.7599593605587955 0.3784810536953955 C
atom_frac 0.4238478784670860 0.2599674713226463 0.6215187931925074 C
atom_frac 0.5761619531245188 0.2400403082097355 0.1215207575729167 C
atom_frac 0.0696697309485117 0.3240767221976881 0.1601094555845108 C
atom_frac 0.9303435258047231 0.1759178956966707 0.6601050605960523 C
atom_frac 0.5696501701633350 0.6759150797839837 0.3398933219438832 C
atom_frac 0.4303407405972450 0.8240789869539498 0.8398910041251142 C
atom_frac 0.9303375813256523 0.6759201404887847 0.8398882405860776 C
atom_frac 0.0696454867646281 0.8240823274109913 0.3398965782909401 C
atom_frac 0.4303571421556994 0.3240845832901726 0.6601058527511513 C
atom_frac 0.5696443505175494 0.1759167555260248 0.1601081705480638 C
atom_frac 0.0267560835218035 0.3184884896158522 0.2272618934209305 C
atom_frac 0.9732494348729189 0.1815095618015334 0.7272635085044143 C
atom_frac 0.5267482996371342 0.6815059431751962 0.2727373057445419 C
atom_frac 0.4732438139316598 0.8184914109647323 0.7727376130829314 C
atom_frac 0.9732460002519897 0.6815111734604712 0.7727338313569164 C
atom_frac 0.0267474204671529 0.8184923415610256 0.2727371447010398 C
atom_frac 0.4732550913105200 0.3184937198876340 0.7272628546330112 C
atom_frac 0.5267478128959906 0.1815076919855159 0.2272655043438193 C
atom_frac 0.0282264440888582 0.3844571932124055 0.2708936932353581 C
atom_frac 0.9717616915191056 0.1155349409702850 0.7708942090404278 C
atom_frac 0.5282255109984816 0.6155366853270721 0.2291050174993644 C
atom_frac 0.4717761425228417 0.8844637856533025 0.7291034582205144 C
atom_frac 0.9717782538762734 0.6155374291651867 0.7291010458726676 C
atom_frac 0.0282312424454645 0.8844636018985738 0.2291103869224927 C
atom_frac 0.4717739585733014 0.3844635378066170 0.7708951428706926 C
atom_frac 0.5282246341150909 0.1155330770202525 0.2708942379402970 C
atom_frac 0.1323866884543676 0.4469196581118665 0.2564656536879681 C
atom_frac 0.8676129081197672 0.0530770613455047 0.7564686851832080 C
atom_frac 0.6323886714620954 0.5530768724508661 0.2435328760066114 C
atom_frac 0.3676119781942119 0.9469234938918516 0.7435326130298564 C
atom_frac 0.8676114738993731 0.5530783247280338 0.7435280997121084 C
atom_frac 0.1323852543582831 0.9469209214515074 0.2435368964775506 C
atom_frac 0.3676107981134891 0.4469222305202435 0.7564687628992887 C
atom_frac 0.6323861842451494 0.0530767292410346 0.2564670544940455 C
atom_frac 0.1368293909944072 0.5068574418895224 0.2998870310174341 C
atom_frac 0.8631659074354942 0.9931363548944246 0.7998874898763405 C
atom_frac 0.6368318199947252 0.4931419066183197 0.2001139761899894 C
atom_frac 0.3631757420772103 0.0068625025584268 0.7001118236687419 C
atom_frac 0.8631753070142166 0.4931388607149572 0.7001101723066797 C
atom_frac 0.1368387906418391 0.0068610678476233 0.2001151347306661 C
atom_frac 0.3631663424757079 0.5068583165038518 0.7998886483990902 C
atom_frac 0.6368302631308040 0.9931377205881728 0.2998883367110993 C
atom_frac 0.9297004630694587 0.3871252969608391 0.3293833196402574 C
atom_frac 0.0702928233783950 0.1128714537533000 0.8293890378694472 C
atom_frac 0.4297027664192540 0.6128696083897581 0.1706092002601736 C
atom_frac 0.5702989648039246 0.8871318468645201 0.6706123559963474 C
atom_frac 0.0703068491618950 0.6128704455791335 0.6706114194684218 C
atom_frac 0.9297014176868359 0.8871265290466892 0.1706135867202789 C
atom_frac 0.5703006245121784 0.3871294945980353 0.8293899744306188 C
atom_frac 0.4296978905458246 0.1128694964140706 0.3293897757433228 C
atom_frac 0.9397415870590888 0.4496949122636095 0.3697490636857951 C
atom_frac 0.0602420907274634 0.0502993053974237 0.8697511729918832 C
atom_frac 0.4397548025211933 0.5503005928540291 0.1302494004180375 C
atom_frac 0.5602526160326562 0.9497028353473452 0.6302496979524153 C
atom_frac 0.0602618038326526 0.5503013903347165 0.6302491253247525 C
atom_frac 0.9397586859981500 0.9497014778103079 0.1302509587552834 C
atom_frac 0.5602459741764604 0.4496985101214505 0.8697517456456296 C
atom_frac 0.4397520820187779 0.0502945874036342 0.3697504624336077 C
atom_frac 0.8398018324917658 0.0958169937157436 0.0314188101154684 N
atom_frac 0.1602074123906263 0.4041819178820134 0.5314216247369360 N
atom_frac 0.3397916659855439 0.9041825969847390 0.4685739334821123 N
atom_frac 0.6602045638638785 0.5958178175530833 0.9685825025092711 N
atom_frac 0.1602107083207187 0.9041826693741012 0.9685788860548075 N
atom_frac 0.8397959784517537 0.5958121444108143 0.4685741000591507 N
atom_frac 0.6602012679275545 0.0958204265469433 0.5314212984280645 N
atom_frac 0.3397962129442361 0.4041868861906153 0.0314235719800564 N
atom_frac 0.2618543474264570 0.1044085624179942 0.0355873819700605 N
atom_frac 0.7381536779532000 0.3955903189439525 0.5355909909751305 N
atom_frac 0.7618341630633197 0.8955856794404224 0.4644110424198544 N
atom_frac 0.2381554435053843 0.6044069241957500 0.9644133696201534 N
atom_frac 0.7381555791260367 0.8955866200235217 0.9644142569628901 N
atom_frac 0.2618392559713101 0.6044093440999988 0.4644086765425827 N
atom_frac 0.2381626922298209 0.1044117432932694 0.5355896107986312 N
atom_frac 0.7618427189571262 0.3955910586066196 0.0355907335080232 N
atom_frac 0.5208489945680411 0.0869473778988166 0.8425319709421902 N
atom_frac 0.4791524109013636 0.4130459170292441 0.3425311601830644 N
atom_frac 0.0208442390391497 0.9130562873563118 0.6574663178291972 N
atom_frac 0.9791493732833061 0.5869542244486893 0.1574703789258365 N
atom_frac 0.4791530893534740 0.9130629266585616 0.1574672037140772 N
atom_frac 0.5208496728524564 0.5869459049251233 0.6574704787479250 N
atom_frac 0.9791539234433416 0.0869495365680280 0.3425318711458374 N
atom_frac 0.0208383323607038 0.4130628010057079 0.8425337241313146 N
atom_frac 0.0406512614534336 0.1909454737881475 0.1451470495202685 N
atom_frac 0.9593590665462910 0.3090470122906338 0.6451434456616952 N
atom_frac 0.5406387255793064 0.8090473336704987 0.3548546554595049 N
atom_frac 0.4593459640123072 0.6909483047952563 0.8548512273750433 N
atom_frac 0.9593508222889681 0.8090497086539583 0.8548501538031914 N
atom_frac 0.0406417101182299 0.6909504104543768 0.3548562218742646 N
atom_frac 0.4593620511062468 0.1909545697123249 0.6451425478424541 N
atom_frac 0.5406456627680498 0.3090502380906771 0.1451479472997690 N
atom_frac 0.0420436720458213 0.5093152368582918 0.3557941418140800 N
atom_frac 0.9579541086956025 0.9906837552587717 0.8557998271421569 N
atom_frac 0.5420540243465765 0.4906854172657945 0.1442031317476093 N
atom_frac 0.4579523625997624 0.0093193973664967 0.6442032200343278 N
atom_frac 0.9579623331031611 0.4906833060667777 0.6442020758170842 N
atom_frac 0.0420518965258907 0.0093147876412800 0.1442032903077433 N
atom_frac 0.4579493666211150 0.5093136857094932 0.8557994928525547 N
atom_frac 0.5420471069934294 0.9906813858404319 0.3557984188666908 N
