#=======================================================
# FHI-aims file: geometry_Cu2H38C54N6O12.in
# Created using the Atomic Simulation Environment (ASE)
# Wed Dec  8 17:56:10 2021
#=======================================================
lattice_vector 10.1293075100000003 0.0000000000000000 -0.3771080000000000 
lattice_vector -0.4911561400000000 10.1558207520000003 -0.9796070000000000 
lattice_vector 0.0000000000000000 0.0000000000000000 13.4385999999999992 
atom_frac 0.1233871988637958 0.3582300326917007 0.9537574559421456 Cu
atom_frac 0.8766043347182231 0.6417610313490911 0.0462338417762069 Cu
atom_frac 0.2993887366009105 0.4989463799862861 0.1080620938298154 H
atom_frac 0.7005953457461089 0.5010131750304865 0.8919133036920284 H
atom_frac 0.9731477350527201 0.2423723360335259 0.1149280009119309 H
atom_frac 0.0268488625313523 0.7576010041812538 0.8850770294341997 H
atom_frac 0.9756317744163994 0.2652400102147823 0.2993190896278718 H
atom_frac 0.0243686920191521 0.7347520384830020 0.7006784835378851 H
atom_frac 0.3183344982501168 0.5343270753308005 0.2944441407028791 H
atom_frac 0.6816713664000958 0.4656541421399822 0.7055260058979158 H
atom_frac 0.4291855252691689 0.6340186733536015 0.0015193863654801 H
atom_frac 0.5707939381812466 0.3659881451991964 0.9984518855679737 H
atom_frac 0.5892463530571347 0.0053496414841021 0.1434777476786238 H
atom_frac 0.4107563265703504 0.9946473304986938 0.8565046198479108 H
atom_frac 0.1660667630789590 0.9339215639594799 0.0981464740670006 H
atom_frac 0.8339278276953337 0.0660714693953111 0.9018733297491152 H
atom_frac 0.4387538205055749 0.1845897092690265 0.1829731480266616 H
atom_frac 0.5612614544447538 0.8154023394287648 0.8170404673168008 H
atom_frac 0.2679902363933593 0.1627293391993518 0.1450085620414967 H
atom_frac 0.7320099112330993 0.8372764946964467 0.8550123308042072 H
atom_frac 0.5130472295590210 0.1441153832605551 0.3383314223873199 H
atom_frac 0.4869686506683595 0.8558687881812261 0.6616741944771077 H
atom_frac 0.4629631789817026 0.1028316691976201 0.5152844597999148 H
atom_frac 0.5370781783593301 0.8971485636161631 0.4847186083850302 H
atom_frac 0.0583108711545890 0.0087319382810662 0.4162385489458059 H
atom_frac 0.9417248815896215 0.9912345093347099 0.5837894014727991 H
atom_frac 0.1189030234058350 0.0616001419557151 0.2454729816804857 H
atom_frac 0.8811001814128900 0.9384076612540825 0.7545607906352102 H
atom_frac 0.0115781453236536 0.2786254374805424 0.4522889021297373 H
atom_frac 0.9884232436639310 0.7214059974972642 0.5477138003632758 H
atom_frac 0.2415938653963110 0.4885178776932406 0.4553251463698088 H
atom_frac 0.7584101510816125 0.5115066646855695 0.5446585242902343 H
atom_frac 0.9500248537895646 0.2039756362962635 0.5978411392338570 H
atom_frac 0.0500091786128181 0.7960164124015279 0.4021417492173071 H
atom_frac 0.2597540444737447 0.5111787739043763 0.6219263638601902 H
atom_frac 0.7401880134312789 0.4889117404934710 0.3780893980577317 H
atom_frac 0.9673501358868040 0.2094995620694675 0.7861832863947241 H
atom_frac 0.0326516042510150 0.7904983945703280 0.2138058236710449 H
atom_frac 0.2638801716679353 0.5017821921479282 0.8069762230947288 H
atom_frac 0.7360597531309595 0.4982846904819028 0.1930407328272778 H
atom_frac 0.2291905839424403 0.4512860271876562 0.1540579043921682 C
atom_frac 0.7708004721929953 0.5486951902831265 0.8459192679100056 C
atom_frac 0.0465222587367933 0.3078008244074582 0.1577372463011812 C
atom_frac 0.9534618867584044 0.6921803930633246 0.8422627999567849 C
atom_frac 0.0496700142985844 0.3208406370660200 0.2613753436895578 C
atom_frac 0.9503219012407058 0.6791583042307749 0.7386157948347074 C
atom_frac 0.2391619018358497 0.4691673983180210 0.2578073262126708 C
atom_frac 0.7608347588964008 0.5308276043507689 0.7421710082354662 C
atom_frac 0.1677044060487063 0.6837733915924460 0.0163113623423499 C
atom_frac 0.8322749141677335 0.3162304729893464 0.9836991288739653 C
atom_frac 0.2855617171250416 0.7748502255172554 0.0483328853370040 C
atom_frac 0.7144224437736710 0.2251516697505380 0.9516612274102909 C
atom_frac 0.4141920670619754 0.7327177371198275 0.0366355547700152 C
atom_frac 0.5857895464321956 0.2672723422639649 0.9633531604232671 C
atom_frac 0.5226954431731485 0.8168744016446183 0.0702869729849880 C
atom_frac 0.4772888132148836 0.1831294629371740 0.9296834739908419 C
atom_frac 0.5027754974216236 0.9427096276895739 0.1167238858611626 C
atom_frac 0.4972251122478966 0.0572853749792159 0.8832627447767506 C
atom_frac 0.3748034094555805 0.9848578705990151 0.1283180560606638 C
atom_frac 0.6251982351929186 0.0151381167267743 0.8716880226503888 C
atom_frac 0.2668176738002259 0.9015224100126958 0.0929595897516649 C
atom_frac 0.7331712322914541 0.0984755466270926 0.9070492515493951 C
atom_frac 0.1486061132396870 0.4033076301778351 0.3150866557399751 C
atom_frac 0.8513772036586857 0.5966972190609638 0.6849061604028676 C
atom_frac 0.3509043337192992 0.1178604889973371 0.1813459580257941 C
atom_frac 0.6490956706731766 0.8821423909274628 0.8186687624697128 C
atom_frac 0.6620702124089916 0.7760928626519714 0.0580557479622144 C
atom_frac 0.3379208591299587 0.2239090326158220 0.9419117702036244 C
atom_frac 0.4133052096794003 0.1194438174542540 0.3603983079112893 C
atom_frac 0.5867188071458216 0.8805452772725317 0.6396123609124655 C
atom_frac 0.3854306952178135 0.0916124873331157 0.4565239855707545 C
atom_frac 0.6145998502903680 0.9083687301376671 0.5434892687457946 C
atom_frac 0.1606319831631851 0.0356928316136944 0.4016981347465744 C
atom_frac 0.8393988488129551 0.9642942937990924 0.5983282083955004 C
atom_frac 0.1914659708264494 0.0673466002110459 0.3074752243774910 C
atom_frac 0.8085459604636540 0.9326375712307353 0.6925496289270611 C
atom_frac 0.2601682051266749 0.0410129333877762 0.4775161153792879 C
atom_frac 0.7398706525544726 0.9589564681989983 0.5225032079968557 C
atom_frac 0.2371350678798834 0.9796559276650001 0.5763303718772902 C
atom_frac 0.7629150636771840 0.0203016580377735 0.4236869182919775 C
atom_frac 0.0892811924364452 0.3496172379077080 0.4846848738330181 C
atom_frac 0.9107184608057963 0.6504191203551102 0.5153099534587895 C
atom_frac 0.1629392800318854 0.4183029716395268 0.4236570941283445 C
atom_frac 0.8370567430821723 0.5817196014252772 0.5763247204220434 C
atom_frac 0.1033448557830567 0.3565502078487270 0.5931958129071971 C
atom_frac 0.8966528707352027 0.6434871350710907 0.4068057292205154 C
atom_frac 0.0208485536256262 0.2713626074443312 0.6421703798127324 C
atom_frac 0.9791729943467474 0.7286570116494673 0.3578201210515246 C
atom_frac 0.1934274668130413 0.4410131007006939 0.6539366128683851 C
atom_frac 0.8065455942507711 0.5590449200161274 0.3460709532926742 C
atom_frac 0.0303393686477023 0.2730227391472937 0.7455156195630364 C
atom_frac 0.9696650143839775 0.7269890026905017 0.2544753136638461 C
atom_frac 0.1970905986113607 0.4372566342435178 0.7569764782910793 C
atom_frac 0.8028685456826636 0.5627994171593045 0.2430335302911359 C
atom_frac 0.1336766738293989 0.3724317406109350 0.1040031910495998 N
atom_frac 0.8663001313236406 0.6275406149468452 0.8959863296109275 N
atom_frac 0.3171120794577647 0.1047035021557079 0.2870748281589144 N
atom_frac 0.6829018263009701 0.8952806692860804 0.7129418951758381 N
atom_frac 0.1161313882594754 0.3552445526659653 0.8025600974853899 N
atom_frac 0.8838506225954816 0.6447740817708336 0.1974396398811676 N
atom_frac 0.1807173921264962 0.5850930363092317 0.9550817204418462 O
atom_frac 0.8192604634090372 0.4149009817025587 0.0449354531586579 O
atom_frac 0.0597787954778042 0.7176899019771099 0.0574894046858390 O
atom_frac 0.9402040116328436 0.2823247938316911 0.9425093237933948 O
atom_frac 0.7547187533207237 0.8613316652203976 0.0575980390962485 O
atom_frac 0.2452761239215279 0.1386672760763972 0.9423716029091691 O
atom_frac 0.6776342646965361 0.6499681474488455 0.0483372262965744 O
atom_frac 0.3223560583313869 0.3500386711039525 0.9516589065028639 O
atom_frac 0.3285794564592024 0.0002491182211415 0.6426609899557717 O
atom_frac 0.6714506901540888 0.9997645929306601 0.3573672719219019 O
atom_frac 0.1309936519550376 0.9087232066578751 0.5764000988500227 O
atom_frac 0.8690870053142206 0.0911920387938707 0.4235993348969983 O
