#=======================================================
# FHI-aims file: geometry_Cu2H16C26S2N6O2.in
# Created using the Atomic Simulation Environment (ASE)
# Wed Dec  8 17:56:10 2021
#=======================================================
lattice_vector 5.7333200499999997 -0.0000671180000000 -0.6279055750000000 
lattice_vector -0.0000040970000000 7.0207586360000001 0.0000196210000000 
lattice_vector -0.1086473780000000 0.0000036710000000 14.4657718790000001 
atom_frac 0.1551858393320984 0.9146215298875617 0.9292109830241486 Cu
atom_frac 0.8448355499436245 0.4146256259094657 0.0707877066611928 Cu
atom_frac 0.6059083795425481 0.9407416672271864 0.1315522467158701 H
atom_frac 0.3940817424532810 0.4407063997369817 0.8684512365516638 H
atom_frac 0.1863755155132479 0.9538528136521548 0.5802861803644390 H
atom_frac 0.8136215284224375 0.4538488264705761 0.4197134200272145 H
atom_frac 0.3237158470846139 0.9954706233887336 0.7494196330241463 H
atom_frac 0.6762865042304681 0.4954713089378374 0.2505807761232006 H
atom_frac 0.5462055106739213 0.7201920042306255 0.6611117218185852 H
atom_frac 0.4537895309980867 0.2201983138184644 0.3388918819462318 H
atom_frac 0.9304522434690127 0.0042846514018464 0.2579030070488173 H
atom_frac 0.0695476586750345 0.5042577486580272 0.7420972457164936 H
atom_frac 0.1729027287906320 0.7075560717059446 0.3279764636182421 H
atom_frac 0.8270922167826952 0.2075478052054365 0.6720230225511798 H
atom_frac 0.2357364700067706 0.7966212065751890 0.1652075418604326 H
atom_frac 0.7642586114819351 0.2966001737061532 0.8347923999015875 H
atom_frac 0.7126246605735247 0.7649080496536129 0.8266386397503708 H
atom_frac 0.2873774383736957 0.2649156235390180 0.1733658403265252 H
atom_frac 0.5836967786615617 0.9050130848231247 0.2031041778306033 C
atom_frac 0.4163054610172664 0.4049939847811714 0.7968971631734049 C
atom_frac 0.0749245570063337 0.9124658798615073 0.6327140867500204 C
atom_frac 0.9250741885975060 0.4124626541029883 0.3672863910630468 C
atom_frac 0.3315002111560473 0.5279461030457072 0.0237892920437659 C
atom_frac 0.6685239657332502 0.0279430324451795 0.9762015808734716 C
atom_frac 0.7267662152082081 0.8892411451362958 0.3622698570311371 C
atom_frac 0.2732272614810327 0.3892209003378752 0.6377304551038135 C
atom_frac 0.1528789915403337 0.9340782005685636 0.7266660453010587 C
atom_frac 0.8471233013415684 0.4340792800052640 0.2733359104255797 C
atom_frac 0.7193933973844080 0.7810417761172059 0.6781515623273718 C
atom_frac 0.2806016888587450 0.2810433678485893 0.3218498044474032 C
atom_frac 0.7667069815077880 0.9414681233589945 0.2730176549560781 C
atom_frac 0.2332883914813308 0.4414370511457548 0.7269867455482455 C
atom_frac 0.8501283045941292 0.8385425472753456 0.6070484120950824 C
atom_frac 0.1498668478262104 0.3385429893641927 0.3929521102816338 C
atom_frac 0.3363292046052635 0.7706163544131072 0.3128452391063377 C
atom_frac 0.6636658541384222 0.2705992500063346 0.6871554634946975 C
atom_frac 0.5179351113944859 0.8048209099051390 0.3838515219919003 C
atom_frac 0.4820565294895900 0.3048118022187937 0.6161503220273019 C
atom_frac 0.7460232527649210 0.8306834770729099 0.5110723383784830 C
atom_frac 0.2539718757040106 0.3306786875320001 0.4889275129983730 C
atom_frac 0.3727687614274942 0.8215172321899329 0.2225479214952983 C
atom_frac 0.6272228762449075 0.3214893661695299 0.7774524945430201 C
atom_frac 0.8116788733141718 0.8061082775491428 0.7701194216387250 C
atom_frac 0.1883180193370393 0.3061039279441005 0.2298833381284737 C
atom_frac 0.0679687382773650 0.6038536803281929 0.9863473737056693 S
atom_frac 0.9320503981829658 0.1038552306182936 0.0136479135097645 S
atom_frac 0.0241639647581167 0.8841777683164694 0.7951974796749610 N
atom_frac 0.9758365005802431 0.3841813804178997 0.2048038408016666 N
atom_frac 0.5374445045490502 0.7694630442850396 0.4791482515417798 N
atom_frac 0.4625488200934810 0.2694522389076042 0.5208530701954359 N
atom_frac 0.5230636061098650 0.4746773249239738 0.0486814838919543 N
atom_frac 0.4769507785861933 0.9746793579586208 0.9513112085410852 N
atom_frac 0.8742404353138509 0.9055199554711636 0.4439730371623227 O
atom_frac 0.1257548225662148 0.4055097955703887 0.5560279994005271 O
