#=======================================================
# FHI-aims file: geometry_Na4Cu2H24C32O20.in
# Created using the Atomic Simulation Environment (ASE)
# Wed Dec  8 17:56:10 2021
#=======================================================
lattice_vector 6.5517724949999998 -0.0000299660000000 0.0000162430000000 
lattice_vector -0.0000534930000000 10.8111466899999993 -2.3138471350000001 
lattice_vector 0.0000292240000000 -0.0356727190000000 12.3037169550000005 
atom_frac 0.8521909715680496 0.5936365402178724 0.6976249857721513 Na
atom_frac 0.6478042366542029 0.5936344650562831 0.1976263671227727 Na
atom_frac 0.1478077729109161 0.4063640049658163 0.3023721856917235 Na
atom_frac 0.3521960341152949 0.4063651599529907 0.8023722568153673 Na
atom_frac 0.9999992410584899 0.5000008591896831 0.9999985660874556 Cu
atom_frac 0.4999978459157718 0.4999988909779207 0.5000003578128016 Cu
atom_frac 0.1212892349139238 0.9322355784951959 0.0135104418407153 H
atom_frac 0.3787165783394144 0.9322368749875949 0.5135088440302978 H
atom_frac 0.8787064569352198 0.0677631209558101 0.9864880080422225 H
atom_frac 0.6212897976346172 0.0677608989473981 0.4864894317852305 H
atom_frac 0.3210837090824725 0.1035022725661605 0.9623216516427532 H
atom_frac 0.1789198307314095 0.1035040718901783 0.4623236794875610 H
atom_frac 0.6789150353784665 0.8964982860349056 0.0376795861570044 H
atom_frac 0.8210880715426826 0.8964955665576043 0.5376790107803585 H
atom_frac 0.5423433243721761 0.0616030798155194 0.7945478050421998 H
atom_frac 0.9576499630130402 0.0616064335824191 0.2945526403109540 H
atom_frac 0.4576554200991440 0.9383984016476605 0.2054527935492486 H
atom_frac 0.0423503077443499 0.9383959922149077 0.7054538252083730 H
atom_frac 0.5656935523777593 0.8469374404176480 0.6791731809206141 H
atom_frac 0.9342967988672655 0.8469388164490185 0.1791785186737442 H
atom_frac 0.4343036658026024 0.1530658921324887 0.3208277657897867 H
atom_frac 0.0657004192982455 0.1530654577475588 0.8208274816985793 H
atom_frac 0.0449832618682393 0.6495073762230065 0.5011721314400006 H
atom_frac 0.4550073605993746 0.6495153323559111 0.0011745881572693 H
atom_frac 0.9550154826098665 0.3504950307857655 0.4988286412103092 H
atom_frac 0.5449898575746418 0.3504861437360916 0.9988243839010451 H
atom_frac 0.8098055722862371 0.6727548489601959 0.4829206286103158 H
atom_frac 0.6901868565131938 0.6727588169623574 0.9829240947837830 H
atom_frac 0.1901916458981603 0.3272475499939206 0.5170777042396820 H
atom_frac 0.3098118879558173 0.3272398744466686 0.0170719152951833 H
atom_frac 0.0967174554383590 0.6963463573189731 0.9062868963624168 C
atom_frac 0.4032871072023811 0.6963503167401585 0.4062862997446998 C
atom_frac 0.9032812890437827 0.3036551160937790 0.0937112624275045 C
atom_frac 0.5967116372721224 0.3036520929520919 0.5937152861727880 C
atom_frac 0.2255904039242723 0.7950428656589780 0.8734485710251219 C
atom_frac 0.2744114843884519 0.7950461140240390 0.3734489937200962 C
atom_frac 0.7744098668348446 0.2049558364881818 0.1265506921213344 C
atom_frac 0.7255918389657198 0.2049516679529333 0.6265517218994034 C
atom_frac 0.2163783138301127 0.9147355242731269 0.9391897342691350 C
atom_frac 0.2836249425192535 0.9147416083481450 0.4391931042127696 C
atom_frac 0.7836204306217311 0.0852613187281932 0.0608067409592721 C
atom_frac 0.7163799071390144 0.0852571045455974 0.5608094119987327 C
atom_frac 0.3292412764757772 0.0103910901977926 0.9107725809527665 C
atom_frac 0.1707596764706807 0.0103946954270810 0.4107749699597746 C
atom_frac 0.6707544153593761 0.9896066890745774 0.0892273214056586 C
atom_frac 0.8292451731808017 0.9896030919210691 0.5892273721928589 C
atom_frac 0.4544356383054621 0.9867351077957309 0.8167131004013723 C
atom_frac 0.0455622548168435 0.9867398761154721 0.3167176642249315 C
atom_frac 0.5455646324568307 0.0132645225804993 0.1832871500711235 C
atom_frac 0.9544380159373703 0.0132616214527914 0.6832878139683559 C
atom_frac 0.4673261182419283 0.8671720421315855 0.7521195414609635 C
atom_frac 0.0326749776667228 0.8671767229684806 0.2521192462883378 C
atom_frac 0.5326756787865179 0.1328248250294735 0.2478842531695946 C
atom_frac 0.9673268193856617 0.1328229181458767 0.7478842572516483 C
atom_frac 0.3523822677451491 0.7704797779399544 0.7790082247561472 C
atom_frac 0.1476200619802555 0.7704841698238670 0.2790075717502702 C
atom_frac 0.6476210555982008 0.2295180120874464 0.2209949306648866 C
atom_frac 0.8523817350793481 0.2295154659235338 0.7209943052553597 C
atom_frac 0.3569116415976695 0.6443745522744850 0.7046592867863524 C
atom_frac 0.1430831869114826 0.6443733711461733 0.2046592232092408 C
atom_frac 0.6430886291813493 0.3556278574219932 0.2953422991299206 C
atom_frac 0.8569186101697498 0.3556262485003786 0.7953377741933280 C
atom_frac 0.9064739810607139 0.7000765978225945 0.8949031862945276 O
atom_frac 0.5935257843220542 0.7000844110920073 0.3949090088787769 O
atom_frac 0.0935247633756902 0.2999146731208527 0.1050865517104569 O
atom_frac 0.4064714338248336 0.2999133628176340 0.6050892669440698 O
atom_frac 0.1928188388002995 0.6150571415253837 0.9491062835347392 O
atom_frac 0.3071870670405943 0.6150577893953655 0.4491045051200473 O
atom_frac 0.8071753267402855 0.3849424915174141 0.0508947802098163 O
atom_frac 0.6928132037289105 0.3849418356139086 0.5508941188180999 O
atom_frac 0.5174835380985102 0.6202658769332035 0.6422239755429259 O
atom_frac 0.9825110729358215 0.6202693549664037 0.1422247047286689 O
atom_frac 0.4825136800651182 0.3797346762966855 0.3577756357236979 O
atom_frac 0.0174891978508498 0.3797321184505763 0.8577734540600302 O
atom_frac 0.2122555169329985 0.5696816486806856 0.7054553379877788 O
atom_frac 0.2877350321314509 0.5696803807071548 0.2054662548180204 O
atom_frac 0.7877462801626580 0.4303179602319602 0.2945384063460779 O
atom_frac 0.7122637123367002 0.4303201725269618 0.7945333564473811 O
atom_frac 0.9136932033628329 0.6688150259078186 0.5399076486169888 O
atom_frac 0.5862970080334196 0.6688255650716999 0.0399107518589403 O
atom_frac 0.0863040148351217 0.3311892241374823 0.4600910323507392 O
atom_frac 0.4137063153659001 0.3311759056702571 0.9600865936601438 O
