#=======================================================
# FHI-aims file: geometry_Cu4H32C40S8Br4N8.in
# Created using the Atomic Simulation Environment (ASE)
# Wed Dec  8 17:56:10 2021
#=======================================================
lattice_vector 7.9397339020000004 0.0788075890000000 0.0000013380000000 
lattice_vector -3.7679544450000000 9.5034856760000004 0.0000202490000000 
lattice_vector 0.0000006500000000 0.0000311040000000 14.8720004810000006 
atom_frac 0.0267831552880722 0.6509610945578146 0.9595660517281887 Cu
atom_frac 0.4732007128094582 0.8490330993547704 0.4595724820960072 Cu
atom_frac 0.9732078541936462 0.3490332590561210 0.0404297748000744 Cu
atom_frac 0.5268080318149374 0.1509800475655325 0.5404367924950081 Cu
atom_frac 0.9452747906831793 0.8145774494091784 0.6446229108916056 H
atom_frac 0.5547252195097556 0.6854357618539951 0.1446211208194015 H
atom_frac 0.0547212590643298 0.1854116011610927 0.3553789672838974 H
atom_frac 0.4452767549637927 0.3145763889820402 0.8553821021331133 H
atom_frac 0.6083942623221291 0.7328535983204322 0.6507452954147014 H
atom_frac 0.8916151786370038 0.7671794873165679 0.1507465841778100 H
atom_frac 0.3916082316391610 0.2671543392455790 0.3492518759030290 H
atom_frac 0.1083902997526138 0.2328347389586655 0.8492552939625710 H
atom_frac 0.4484268107838788 0.5932555970795691 0.7875240054043360 H
atom_frac 0.0515707658691370 0.9067753856607866 0.2875290096424196 H
atom_frac 0.5515666195089109 0.4067597813631281 0.2124738383085756 H
atom_frac 0.9484349722561378 0.0932367339629963 0.7124748857142934 H
atom_frac 0.6364396678302313 0.5645933975588094 0.9149231627161074 H
atom_frac 0.8635446670211523 0.9354160698564797 0.4149246707745107 H
atom_frac 0.3635382545791830 0.4354105347626391 0.0850807326542551 H
atom_frac 0.1364593412190658 0.0645897506393851 0.5850792245909417 H
atom_frac 0.4047082088465006 0.5553691761810386 0.4150940030372325 H
atom_frac 0.0953034483803776 0.9446145559482844 0.9150981915560551 H
atom_frac 0.5953208683373605 0.4446416976516618 0.5849119095325648 H
atom_frac 0.9047136910781008 0.0553711630234304 0.0848962901726225 H
atom_frac 0.2098853838520115 0.3188266794490320 0.4712468421585640 H
atom_frac 0.2901539568218965 0.1811475826080057 0.9712470062228888 H
atom_frac 0.7901356907150829 0.6811779473185525 0.5287449499260291 H
atom_frac 0.7098508747931476 0.8188413951607033 0.0287481479069598 H
atom_frac 0.0138734106374017 0.3042344591297024 0.6058857940803365 H
atom_frac 0.4861634006392065 0.1957316930332809 0.1058852430884585 H
atom_frac 0.9861196105610052 0.6957588255984039 0.3940972567637644 H
atom_frac 0.5138255971356859 0.8042637294862093 0.8941173074835049 H
atom_frac 0.0474587426305959 0.5243190343906577 0.6898768819078357 H
atom_frac 0.4525647898006327 0.9756418718721991 0.1898728851107592 H
atom_frac 0.9525245239579760 0.4756669654825956 0.3101142378010238 H
atom_frac 0.5474292261769166 0.0243535090316698 0.8101303378653029 H
atom_frac 0.9635798447534686 0.7277949094919196 0.7747622109299641 C
atom_frac 0.5364190285265948 0.7722079891190248 0.2747615326567683 C
atom_frac 0.0364191894289405 0.2722004298007263 0.2252403396412035 C
atom_frac 0.4635862342634668 0.2277978209712971 0.7252430351130740 C
atom_frac 0.8707024528793923 0.7565182333773425 0.7023025267922876 C
atom_frac 0.6292988395692946 0.7435030076421258 0.2023052720210430 C
atom_frac 0.1292938124709623 0.2434792333844201 0.2976946445402576 C
atom_frac 0.3707084128546186 0.2565069949509607 0.7976932441024472 C
atom_frac 0.6831876828682514 0.7091006287276188 0.7059517474282871 C
atom_frac 0.8168100717136043 0.7909237744905084 0.2059509677669595 C
atom_frac 0.3168063110439905 0.2909000135999166 0.2940474411136336 C
atom_frac 0.1831956664149530 0.2090883451398469 0.7940509103762637 C
atom_frac 0.5950568048788160 0.6346051233373802 0.7815180189473310 C
atom_frac 0.9049359450858462 0.8654167222356577 0.2815210550000558 C
atom_frac 0.4049339007169125 0.3654018597358758 0.2184798247772619 C
atom_frac 0.0950660514595896 0.1345901671898703 0.7184821679596142 C
atom_frac 0.6980965276645038 0.6169902677409811 0.8527539108617717 C
atom_frac 0.8018995383106997 0.8830226660604552 0.3527609519267401 C
atom_frac 0.3018939402685491 0.3830135605753996 0.1472412432491481 C
atom_frac 0.1981039725224178 0.1169821063124559 0.6472436158446798 C
atom_frac 0.3242052525142328 0.5437947230725160 0.4759614258994490 C
atom_frac 0.1757944843025854 0.9561718735634274 0.9759622064164120 C
atom_frac 0.6758073219906822 0.4562026084302958 0.5240404522632930 C
atom_frac 0.8242106070513984 0.0438149975604034 0.0240329477162788 C
atom_frac 0.2139210146974406 0.4129206668388363 0.5066219142588723 C
atom_frac 0.2861087640598896 0.0870651338170774 0.0066230400093374 C
atom_frac 0.7860948039922635 0.5870808467633852 0.4933739122574110 C
atom_frac 0.7138928012973838 0.9129249232605403 0.9933788381642971 C
atom_frac 0.1086584040386215 0.4049754888369393 0.5830716362163102 C
atom_frac 0.3913546671641015 0.0949857483167236 0.0830659973807357 C
atom_frac 0.8913336223390335 0.5950156996321072 0.4169167938667115 C
atom_frac 0.6086370994570846 0.9050075467621358 0.9169331911713884 C
atom_frac 0.1252177897121740 0.5272930891393487 0.6291217625533393 C
atom_frac 0.3748068692152631 0.9726860936446046 0.1291184602260458 C
atom_frac 0.8747714678169914 0.4727002267659445 0.3708713743585080 C
atom_frac 0.6251874065034285 0.0273071806187772 0.8708834179438727 C
atom_frac 0.2442514314619829 0.6548863034892918 0.5957097986728358 C
atom_frac 0.2557420166653515 0.8450828343533557 0.0957095548479430 C
atom_frac 0.7557461105090015 0.3451058914542173 0.4042887174757723 C
atom_frac 0.7442560227028708 0.1549104086933824 0.9042943405351664 C
atom_frac 0.2003214831102370 0.7677613459892572 0.7778001486987948 S
atom_frac 0.2996712835852336 0.7322276504624912 0.2778069283577835 S
atom_frac 0.7996670614056995 0.2322225055950256 0.2222003846754674 S
atom_frac 0.7003297181449144 0.2677771427149409 0.7221983118183246 S
atom_frac 0.2843722640007798 0.8203736458989184 0.6466926235008615 S
atom_frac 0.2156142478817172 0.6795941634630720 0.1467015787952164 S
atom_frac 0.7156215143086229 0.1796185802371255 0.3533112718840172 S
atom_frac 0.7843860408428754 0.3204011654086900 0.8533063510118312 S
atom_frac 0.2249985886103831 0.5116090339892454 0.9412768213169970 Br
atom_frac 0.2750071196893489 0.9883966732308026 0.4412835802675374 Br
atom_frac 0.7749981520620397 0.4883947422796881 0.0587277464563840 Br
atom_frac 0.7250071405480938 0.0116174802034124 0.5587236771081194 Br
atom_frac 0.8804848765416226 0.6631519074405929 0.8505772582450675 N
atom_frac 0.6195042107752470 0.8368516282846983 0.3505797510130365 N
atom_frac 0.1194993406998536 0.3368467114645243 0.1494232751094842 N
atom_frac 0.3805000572017221 0.1631520855619116 0.6494254891642441 N
atom_frac 0.3388916594725730 0.6643790341567810 0.5186098604155803 N
atom_frac 0.1611082684063876 0.8356010770866508 0.0186103318584827 N
atom_frac 0.6611186435986057 0.3356214729205648 0.4813913453385439 N
atom_frac 0.8388998073715471 0.1643920827376348 0.9813922187148379 N
