#=======================================================
# FHI-aims file: geometry_Cu4H16C32O16.in
# Created using the Atomic Simulation Environment (ASE)
# Wed Dec  8 17:56:10 2021
#=======================================================
lattice_vector 5.1832133469999997 0.0000096660000000 0.0000099040000000 
lattice_vector 0.0000124660000000 10.9311131689999996 -4.1800427610000002 
lattice_vector 0.0000251280000000 -0.0489578120000000 13.1341896929999997 
atom_frac 0.2075757761303336 0.5593381604754414 0.5370080330555141 Cu
atom_frac 0.7075739303303197 0.9406626751145878 0.4629903587493019 Cu
atom_frac 0.7924317595578716 0.4406604540579978 0.4629894827878830 Cu
atom_frac 0.2924201001818005 0.0593405405488312 0.5370131896743828 Cu
atom_frac 0.1934501512178315 0.9357116083912086 0.9921063212642451 H
atom_frac 0.6934236595081702 0.5642965847544303 0.0078951948247763 H
atom_frac 0.8065805360987995 0.0642916004098950 0.0078957022044648 H
atom_frac 0.3065510779606059 0.4357102749399574 0.9921049451203602 H
atom_frac 0.2087969247566193 0.0049965317013729 0.8329553557517430 H
atom_frac 0.7087687474070138 0.4950137762800965 0.1670511682695235 H
atom_frac 0.7912376211409509 0.9950103552587778 0.1670508837992059 H
atom_frac 0.2912156365544121 0.5049976776939431 0.8329534793149377 H
atom_frac 0.7145048974778379 0.6408007483454768 0.8234110901163731 H
atom_frac 0.2145068662100513 0.8591964172491658 0.1765876459786214 H
atom_frac 0.2854929916844641 0.3591942153529999 0.1765883093186105 H
atom_frac 0.7854910229343377 0.1408049524998489 0.8234122694809827 H
atom_frac 0.4473896152423081 0.7526150730558497 0.9866629811130638 H
atom_frac 0.9473872710180519 0.7473853532634891 0.0133387256281452 H
atom_frac 0.5526179204272881 0.2473826458410429 0.0133388179181253 H
atom_frac 0.0526086888102881 0.2526178521536124 0.9866625354180982 H
atom_frac 0.6137760001157134 0.7611956314529421 0.7384219686800437 C
atom_frac 0.1137642187436683 0.7388090490673845 0.2615808337552536 C
atom_frac 0.3862296062381888 0.2388075739555902 0.2615792923561955 C
atom_frac 0.8862220945336292 0.2611987438167986 0.7384234100333629 C
atom_frac 0.4713197087472168 0.8640164362604354 0.7411687518883029 C
atom_frac 0.9713251666430553 0.6359775312134630 0.2588301018154837 C
atom_frac 0.5286723925287833 0.1359721111480354 0.2588278441526271 C
atom_frac 0.0286862276516686 0.3640210867314194 0.7411681764823896 C
atom_frac 0.3101542822452714 0.8862131174267135 0.9207698333213659 C
atom_frac 0.8101500124452131 0.6137866401629565 0.0792326289333687 C
atom_frac 0.6898513241262734 0.1137809437986093 0.0792323243764486 C
atom_frac 0.1898498059970564 0.3862165618358516 0.9207678696503977 C
atom_frac 0.3191721850745851 0.9258036225966464 0.8329060128842017 C
atom_frac 0.8191691830994543 0.5741979409666129 0.1670947264174742 C
atom_frac 0.6808295626871725 0.0741950021865421 0.1670937903406369 C
atom_frac 0.1808325646588642 0.4258034253641084 0.8329044265796526 C
atom_frac 0.6045709502502207 0.7217388360655262 0.8271353972561785 C
atom_frac 0.1045598392426896 0.7782612972646776 0.1728697787460122 C
atom_frac 0.3954404440257164 0.2782570608210335 0.1728681060202747 C
atom_frac 0.8954303326444805 0.2217428447725282 0.8271363486201864 C
atom_frac 0.4534999821332521 0.7839793718050032 0.9179662459762387 C
atom_frac 0.9534874761873768 0.7160210300007748 0.0820323982691349 C
atom_frac 0.5465114121613016 0.2160174207181029 0.0820329741124297 C
atom_frac 0.0464988371374702 0.2839803295139305 0.9179652298270328 C
atom_frac 0.7640097236386867 0.6810355770937377 0.6412531312647759 C
atom_frac 0.2640081904025493 0.8189624234489089 0.3587473186444613 C
atom_frac 0.2359881655346427 0.3189584636492456 0.3587444516901642 C
atom_frac 0.7359742642679736 0.1810426278911734 0.6412575753758605 C
atom_frac 0.4759175836101548 0.9093300208375014 0.6483942943212428 C
atom_frac 0.9759069255005743 0.5906657604834393 0.3516028456143304 C
atom_frac 0.5240803055487079 0.0906676844084942 0.3516044548860365 C
atom_frac 0.0240813171729570 0.4093264309422793 0.6483903419320641 C
atom_frac 0.2966618093472775 0.9836374311888747 0.6482100368999967 O
atom_frac 0.7966476482202154 0.5163660148997735 0.3517936195997322 O
atom_frac 0.7033553728152314 0.0163676201203415 0.3517948570843146 O
atom_frac 0.2033463823213637 0.4836353480229361 0.6482047709469185 O
atom_frac 0.6599582789032113 0.8726197998787414 0.5795227356445382 O
atom_frac 0.1599609273346232 0.6273728684010463 0.4204716059261600 O
atom_frac 0.3400357516635992 0.1273742374528055 0.4204740848559326 O
atom_frac 0.8400408204745988 0.3726184103017831 0.5795220525016236 O
atom_frac 0.6341834727080525 0.5960054986606309 0.5702804942151403 O
atom_frac 0.1341904888109441 0.9039955015483938 0.4297256743755895 O
atom_frac 0.3658066992083136 0.4039940525032081 0.4297218879602128 O
atom_frac 0.8658131881933928 0.0960077448402572 0.5702847361643961 O
atom_frac 0.0061882845529553 0.6934744218990757 0.6429504121148639 O
atom_frac 0.5061823233130768 0.8065239823693486 0.3570383731662901 O
atom_frac 0.9938173218888908 0.3065186617328877 0.3570377297672566 O
atom_frac 0.4938097779532101 0.1934791786579098 0.6429529759237341 O
