#=======================================================
# FHI-aims file: ./geometry.in
# Created using the Atomic Simulation Environment (ASE)
# Mon Feb  7 19:01:13 2022
#=======================================================
lattice_vector 8.1738983300000001 0.1018410400000000 -0.2679210800000000 
lattice_vector -0.3685597400000000 9.6195354900000005 -3.9034773999999999 
lattice_vector 0.0750653700000000 -0.1129184500000000 10.9562274399999993 
atom_frac 0.5000145200000000 0.9999891300000000 0.5000071799999999 Co
    initial_moment         3.000000
atom_frac 0.7325908500000000 0.7586602400000000 0.5079415200000000 Co
    initial_moment         1.000000
atom_frac 0.2674739000000000 0.2412999900000000 0.4920766100000001 Co
    initial_moment         1.000000
atom_frac 0.7325092900000000 0.8947969600000000 0.3836439300000000 H
atom_frac 0.2675482600000000 0.1051489500000000 0.6163781100000000 H
atom_frac 0.9010117900000000 0.0439189000000000 0.6392368000000000 H
atom_frac 0.0990737400000000 0.9560445700000001 0.3607795300000000 H
atom_frac 0.1005591100000000 0.1391697900000000 0.8318381100000000 H
atom_frac 0.8995067400000000 0.8607981600000000 0.1681888500000000 H
atom_frac 0.1899202000000000 0.9864591999999998 0.9517529699999999 H
atom_frac 0.8101371700000000 0.0135187700000000 0.0482829600000000 H
atom_frac 0.1746703300000000 0.7382932600000000 0.9579092299999999 H
atom_frac 0.8253742200000000 0.2616800500000000 0.0421364500000000 H
atom_frac 0.0682413600000000 0.4941388199999999 0.8547064800000000 H
atom_frac 0.9318024899999999 0.5058369500000000 0.1453387000000000 H
atom_frac 0.8977063400000000 0.3068031199999999 0.6671923899999999 H
atom_frac 0.1023573200000000 0.6931749100000000 0.3328564000000000 H
atom_frac 0.6989589000000000 0.2593137600000000 0.4733102199999999 H
atom_frac 0.3011059100000000 0.7406559800000000 0.5267275500000000 H
atom_frac 0.6324283900000000 0.4489281099999999 0.3961244300000000 H
atom_frac 0.3676281400000000 0.5510379399999999 0.6039171700000000 H
atom_frac 0.4846088800000000 0.1833283200000000 0.9068509000000000 H
atom_frac 0.5154852599999999 0.8166961099999999 0.0931838999999999 H
atom_frac 0.5403753499999999 0.7534827800000000 0.8490427800000000 H
atom_frac 0.4597186500000000 0.2465420200000000 0.1509746300000000 H
atom_frac 0.7729428000000000 0.6110831600000000 0.0066697400000000 H
atom_frac 0.2271323100000000 0.3888572000000000 0.9933472500000000 H
atom_frac 0.3743163800000000 0.5227869099999999 0.2113736200000000 H
atom_frac 0.6257619500000000 0.4771520399999999 0.7886439300000000 H
atom_frac 0.9463267699999999 0.9796618399999998 0.6913474100000000 C
atom_frac 0.0537520400000000 0.0203007900000000 0.3086704200000000 C
atom_frac 0.0554329000000000 0.0312927400000000 0.8007941000000001 C
atom_frac 0.9446356800000000 0.9686745200000000 0.1992312399999999 C
atom_frac 0.1059794700000000 0.9465665300000001 0.8653143300000000 C
atom_frac 0.8940830899999999 0.0534055800000000 0.1347181600000000 C
atom_frac 0.0497138000000000 0.8068340000000001 0.8166539400000000 C
atom_frac 0.9503485600000000 0.1931380900000000 0.1833805300000000 C
atom_frac 0.0920939000000000 0.7058765100000000 0.8705157300000000 C
atom_frac 0.9079553900000000 0.2940992900000000 0.1295270300000000 C
atom_frac 0.0333527000000000 0.5712477899999999 0.8140191400000000 C
atom_frac 0.9666961700000000 0.4287281100000000 0.1860243000000000 C
atom_frac 0.9278866400000000 0.5251567700000001 0.6982966800000001 C
atom_frac 0.0721693000000000 0.4748166599999999 0.3017422900000000 C
atom_frac 0.8639784699999999 0.3884847799999999 0.6319994700000000 C
atom_frac 0.1360809500000000 0.6114873300000000 0.3680422999999999 C
atom_frac 0.7578076899999999 0.3618428500000000 0.5241475300000000 C
atom_frac 0.2422553800000000 0.6381271100000000 0.4758920700000001 C
atom_frac 0.7174844099999999 0.4677497700000000 0.4800954700000000 C
atom_frac 0.2825767700000000 0.5322191799999999 0.5199436600000000 C
atom_frac 0.9424857100000000 0.7631764900000001 0.7050929500000001 C
atom_frac 0.0575870700000000 0.2367917000000000 0.2949338700000000 C
atom_frac 0.8823229900000000 0.6246549600000001 0.6466381600000000 C
atom_frac 0.1177406200000000 0.3753156700000000 0.3533954900000000 C
atom_frac 0.4917975700000000 0.1035320600000000 0.9486963800000000 C
atom_frac 0.5082954500000000 0.8964857899999998 0.0513316300000000 C
atom_frac 0.5140439200000000 0.9647066700000001 0.8643261500000001 C
atom_frac 0.4860434500000000 0.0353115800000000 0.1357004700000000 C
atom_frac 0.5228150400000001 0.8615205400000000 0.9164306100000000 C
atom_frac 0.4772759100000000 0.1384994800000000 0.0835981800000000 C
atom_frac 0.5249083800000000 0.9246534800000001 0.7187096300000000 C
atom_frac 0.4751594600000000 0.0753439700000000 0.2813142700000000 C
atom_frac 0.6530839400000000 0.5613109300000000 0.0025493700000000 C
atom_frac 0.3469863100000000 0.4386370199999999 0.9974678900000000 C
atom_frac 0.5819777900000001 0.5732225700000000 0.1210598500000000 C
atom_frac 0.4180901800000000 0.4267292899999999 0.8789575200000000 C
atom_frac 0.4284106300000000 0.5113866099999999 0.1176979400000000 C
atom_frac 0.5716599500000000 0.4885593899999999 0.8823186800000000 C
atom_frac 0.6694798600000000 0.6540331200000000 0.2493807500000000 C
atom_frac 0.3305807199999999 0.3459220600000000 0.7506391400000000 C
atom_frac 0.8886351900000000 0.8479028900000000 0.6441391200000000 N
atom_frac 0.1114488100000000 0.1520591800000000 0.3558775500000000 N
atom_frac 0.7800868300000000 0.5975386499999998 0.5387998099999999 N
atom_frac 0.2199737100000000 0.4024319700000000 0.4612353700000000 N
atom_frac 0.5004235899999999 0.0219555600000000 0.6768476600000000 O
atom_frac 0.4995857599999999 0.9780221499999999 0.3231596900000000 O
atom_frac 0.5562754900000000 0.7996621500000000 0.6482067300000000 O
atom_frac 0.4438327300000000 0.2003413900000000 0.3518303500000000 O
atom_frac 0.6029907100000000 0.6530122800000000 0.3540279700000000 O
atom_frac 0.3970743899999999 0.3469374300000000 0.6459911900000000 O
atom_frac 0.8010119700000000 0.7185843500000000 0.2513234400000000 O
atom_frac 0.1990314200000000 0.2813971200000000 0.7487008499999999 O
atom_frac 0.7018956900000000 0.9235440599999998 0.4767084300000000 O
atom_frac 0.2981409400000000 0.0764250100000000 0.5233115400000000 O
