#=======================================================
# FHI-aims file: ./geometry.in
# Created using the Atomic Simulation Environment (ASE)
# Mon Feb  7 19:01:09 2022
#=======================================================
lattice_vector 9.8247026900000005 0.2765086800000000 -1.5219273600000001 
lattice_vector -1.6284949900000001 8.1197229400000008 -3.7303211799999998 
lattice_vector -0.9424093400000000 0.7505075000000000 10.8036729000000005 
atom_frac 0.3913812400000000 0.6684697900000000 0.1022329500000000 Co
    initial_moment         3.000000
atom_frac 0.6086189500000000 0.3315296500000000 0.8977677099999999 Co
    initial_moment         3.000000
atom_frac 0.2438050700000000 0.4517866699999999 0.4271720599999999 H
atom_frac 0.7561973000000000 0.5482121200000001 0.5728292900000000 H
atom_frac 0.1881878500000000 0.5400755500000001 0.8401187899999999 H
atom_frac 0.8118122999999999 0.4599241000000000 0.1598817299999999 H
atom_frac 0.9332152099999999 0.6460314900000002 0.0458212800000000 H
atom_frac 0.0667834100000000 0.3539685900000000 0.9541782300000000 H
atom_frac 0.5543583399999999 0.8608815800000000 0.3716108100000000 H
atom_frac 0.4456403800000000 0.1391194600000000 0.6283896200000000 H
atom_frac 0.2570520299999999 0.4494289199999999 0.2000491700000000 H
atom_frac 0.7429498199999999 0.5505694700000000 0.7999520799999998 H
atom_frac 0.5516001400000000 0.8887217100000000 0.6058877800000000 H
atom_frac 0.4483988200000000 0.1112797800000000 0.3941127999999999 H
atom_frac 0.5751268700000000 0.8673293799999999 0.7881930000000000 H
atom_frac 0.4248735500000000 0.1326705300000000 0.2118080400000000 H
atom_frac 0.7412876499999999 0.9699917799999999 0.3110670099999999 H
atom_frac 0.2587121100000000 0.0300081500000000 0.6889332600000000 H
atom_frac 0.5597776000000000 0.8679365000000000 0.0099504500000000 H
atom_frac 0.4402228499999999 0.1320625100000000 0.9900505299999999 H
atom_frac 0.1785545400000000 0.0942084600000000 0.3372893700000000 H
atom_frac 0.8214444899999999 0.9057923799999998 0.6627103299999999 H
atom_frac 0.1838022200000000 0.5244950200000000 0.6087972900000000 H
atom_frac 0.8161981100000000 0.4755048800000000 0.3912031899999999 H
atom_frac 0.2008153500000000 0.8230690600000000 0.1547984200000000 C
atom_frac 0.7991847299999999 0.1769307200000000 0.8452018500000000 C
atom_frac 0.3844890300000000 0.6873217000000000 0.6745428999999999 C
atom_frac 0.6155113799999999 0.3126783500000000 0.3254579900000000 C
atom_frac 0.3940516299999999 0.6734863200000000 0.5377288499999999 C
atom_frac 0.6059488500000000 0.3265139200000000 0.4622721200000000 C
atom_frac 0.3140639700000000 0.5471587100000000 0.4211788500000000 C
atom_frac 0.6859374600000000 0.4528406999999999 0.5788223299999999 C
atom_frac 0.6834804100000000 0.6870660299999999 0.0988936300000000 C
atom_frac 0.3165196800000000 0.3129332800000000 0.9011069300000001 C
atom_frac 0.2733396500000000 0.6082369000000000 0.8228619699999998 C
atom_frac 0.7266605799999999 0.3917627000000000 0.1771386000000000 C
atom_frac 0.9410089100000000 0.7599352899999999 0.1263650500000000 C
atom_frac 0.0589907500000000 0.2400647500000000 0.8736349000000000 C
atom_frac 0.0694082200000000 0.8654217500000000 0.1880902199999999 C
atom_frac 0.9305916199999998 0.1345783500000000 0.8119094500000000 C
atom_frac 0.4858976400000000 0.7741628099999999 0.3896212600000000 C
atom_frac 0.5141017300000000 0.2258378200000000 0.6103793699999999 C
atom_frac 0.8215693100000000 0.7976074199999998 0.1682862300000000 C
atom_frac 0.1784306200000000 0.2023923500000000 0.8317140399999999 C
atom_frac 0.3203725900000000 0.5434669400000000 0.2941442699999999 C
atom_frac 0.6796285800000000 0.4565322499999999 0.7058567799999999 C
atom_frac 0.4839345600000000 0.7872749899999999 0.5197003600000000 C
atom_frac 0.5160649700000000 0.2127259100000000 0.4803003699999999 C
atom_frac 0.4873160900000000 0.7885246800000000 0.7916307100000000 C
atom_frac 0.5126843100000000 0.2114751700000000 0.2083702600000000 C
atom_frac 0.8322295300000000 0.9399093800000000 0.2747147999999999 C
atom_frac 0.1677701900000000 0.0600907700000000 0.7252853200000000 C
atom_frac 0.4801930700000000 0.7899276500000000 0.9175186199999998 C
atom_frac 0.5198073100000000 0.2100717600000000 0.0824822300000000 C
atom_frac 0.0787449700000000 1.0108638800000000 0.2895841000000000 C
atom_frac 0.9212545300000000 -0.0108637500000000 0.7104149900000000 C
atom_frac 0.9600333100000000 0.0441227500000000 0.3320204200000000 C
atom_frac 0.0399662500000000 0.9558775799999999 0.6679787499999998 C
atom_frac 0.2724470100000000 0.6011326400000000 0.6934342999999999 C
atom_frac 0.7275533199999998 0.3988671700000000 0.3065663499999999 C
atom_frac 0.3790244500000000 0.6955930500000000 0.9339448599999999 N
atom_frac 0.6209758199999998 0.3044063400000000 0.0660558200000000 N
atom_frac 0.4033602300000000 0.6564594000000000 0.2780877099999999 N
atom_frac 0.5966398400000000 0.3435404200000000 0.7219130499999998 N
atom_frac 0.9710173100000000 0.1932646900000000 0.4423115699999999 N
atom_frac 0.0289830700000000 0.8067356599999999 0.5576879699999999 N
atom_frac 0.3125308800000000 0.9235226799999999 0.2030440199999999 O
atom_frac 0.6874690200000000 0.0764773100000000 0.7969563599999999 O
atom_frac 0.6720197700000000 0.5753289899999999 0.9895531299999999 O
atom_frac 0.3279804200000000 0.4246703800000000 0.0104473600000000 O
atom_frac 0.5874827300000000 0.7223813700000000 0.1584868699999999 O
atom_frac 0.4125174200000000 0.2776175799999999 0.8415137800000000 O
atom_frac 0.8805434399999998 0.2053635400000000 0.5030536199999999 O
atom_frac 0.1194562800000000 0.7946392899999999 0.4969450499999999 O
atom_frac 0.0717163400000000 0.2991648299999999 0.4682306399999999 O
atom_frac 0.9282807500000000 0.7008372700000001 0.5317636500000000 O
atom_frac 0.1962020800000000 0.6777613099999998 0.0818703300000000 O
atom_frac 0.8037980500000000 0.3222384800000000 0.9181300400000000 O
