#=======================================================
# FHI-aims file: geometry_V6Cu2H18C20N6O17.in
# Created using the Atomic Simulation Environment (ASE)
# Tue Dec 21 17:36:59 2021
#=======================================================
lattice_vector 6.8571057279999996 0.0076303970000000 2.5074530670000001 
lattice_vector -0.1020553070000000 9.9753103470000006 1.4012645840000000 
lattice_vector 0.0292869140000000 -0.0606198110000000 10.6348549989999999 
atom_frac 0.0909690015275331 0.8992405205917535 0.5821100151057124 V
atom_frac 0.9090358052181176 0.1007613658103281 0.4178864732302827 V
atom_frac 0.4338064713213824 0.0682245343828569 0.3809153965513445 V
atom_frac 0.5661939871127686 0.9317793649140853 0.6190818517939434 V
atom_frac 0.8710529871508116 0.9496505903250565 0.8978226574175066 V
atom_frac 0.1289459303958509 0.0503472851885789 0.1021729270233251 V
atom_frac 0.4343890550869033 0.8235618464160051 0.1931640613461952 Cu
atom_frac 0.5656142569917008 0.1764380456319330 0.8068339824811802 Cu
atom_frac 0.4098389235436101 0.4065942722769263 0.3170792625478002 H
atom_frac 0.5901614454213444 0.5934056604918964 0.6829251116581857 H
atom_frac 0.6526434786056825 0.3842347755573171 0.3936182040447775 H
atom_frac 0.3473569215729029 0.6157661359774167 0.6063822726208343 H
atom_frac 0.9337276214264063 0.4847632617017794 0.4259117987119368 H
atom_frac 0.0662727133532215 0.5152315999709244 0.5740829083820318 H
atom_frac 0.9997849248316368 0.7351845540561398 0.3547164626073923 H
atom_frac 0.0002270760065670 0.2648113236386321 0.6452819421571050 H
atom_frac 0.7729059755497686 0.8664473602921986 0.2560037293863787 H
atom_frac 0.2271090374927454 0.1335555453375648 0.7439968003758467 H
atom_frac 0.3259949511358045 0.8047213842316336 0.9650808953391347 H
atom_frac 0.6739951262348071 0.1952725325509945 0.0349219965408736 H
atom_frac 0.1941629145868973 0.6350832197691715 0.8689197907667889 H
atom_frac 0.8058242545753912 0.3649127352940980 0.1310882197561585 H
atom_frac 0.1573949569182744 0.3945898751350255 0.9849494625265864 H
atom_frac 0.8425951551176566 0.6054070637194826 0.0150558439003063 H
atom_frac 0.2550289050973618 0.3392690973055679 0.1869109846280851 H
atom_frac 0.7449655938471195 0.6607288450076748 0.8130950358585241 H
atom_frac 0.5640561701637097 0.5716218092819432 0.3081322904432681 C
atom_frac 0.4359471571617064 0.4283801089171390 0.6918692440377612 C
atom_frac 0.6832121177425351 0.4911506133755168 0.3662659923796026 C
atom_frac 0.3167883483150219 0.5088542989970009 0.6337330012925193 C
atom_frac 0.8404131248578822 0.5486008271437939 0.3833102212565790 C
atom_frac 0.1595915965902890 0.4513960624997678 0.6166888261796688 C
atom_frac 0.8778586515153319 0.6858333596934469 0.3432709364391401 C
atom_frac 0.1221490939322578 0.3141705407302807 0.6567274145612316 C
atom_frac 0.7537479547877693 0.7593550498359036 0.2884153137296366 C
atom_frac 0.2462611572606335 0.2406438620602386 0.7115871335710225 C
atom_frac 0.3033145749590602 0.7011831363765210 0.0122700161744476 C
atom_frac 0.6966770278122213 0.2988158025504005 0.9877346752389329 C
atom_frac 0.2307290469312377 0.6059087855511009 0.9595663713570703 C
atom_frac 0.7692580602837894 0.3940831629561075 0.0404421816814916 C
atom_frac 0.2100566842743561 0.4737171930677704 0.0243952171721205 C
atom_frac 0.7899378340886399 0.5262817451662085 0.9756097272077116 C
atom_frac 0.2638533830598532 0.4417611048467619 0.1370414391860352 C
atom_frac 0.7361396212175749 0.5582348431123377 0.8629661367919540 C
atom_frac 0.3426164720859433 0.5433984364569964 0.1826522592398164 C
atom_frac 0.6573824449807120 0.4566014880808920 0.8173505777661348 C
atom_frac 0.4137370570459780 0.5090022748349198 0.2870783745301608 N
atom_frac 0.5862633352692016 0.4909986481363687 0.7129239830911800 N
atom_frac 0.5979705354559925 0.7044959243313472 0.2724890709680423 N
atom_frac 0.4020357617850009 0.2955089866552781 0.7275104286369896 N
atom_frac 0.3554394933338613 0.6706727040496289 0.1229055069194374 N
atom_frac 0.6445564383304047 0.3293232260616961 0.8770995005914061 N
atom_frac 0.6826953363948576 0.8562326790023107 0.9911931057989919 O
atom_frac 0.3173007120205256 0.1437682021213149 0.0088018187886618 O
atom_frac 0.2048254687090818 0.9124066394791793 0.1760528601803344 O
atom_frac 0.7951778551646383 0.0875932354139266 0.8239423622134368 O
atom_frac 0.5074607601206579 0.9914511249912291 0.2410893813481466 O
atom_frac 0.4925425789998739 0.0085507760530206 0.7589093316992861 O
atom_frac 0.4504059571844222 0.2308556949188372 0.3403834177615720 O
atom_frac 0.5495959843616587 0.7691491913749572 0.6596114702433766 O
atom_frac 0.1531983506028425 0.0445124552565233 0.4269976975944375 O
atom_frac 0.8468035405510931 0.9554894318385082 0.5729985377750920 O
atom_frac 0.3377341140137133 0.9667198567039673 0.5654526801449008 O
atom_frac 0.6622649387425737 0.0332880637912041 0.4345462503962096 O
atom_frac 0.1369843630510914 0.7604104662711748 0.5182404352072538 O
atom_frac 0.8630263060916332 0.2395923975109255 0.4817526615212842 O
atom_frac 0.0163304362356271 0.8564847402689180 0.7610663676243162 O
atom_frac 0.9836699255859286 0.1435121304000900 0.2389290086897092 O
atom_frac 0.0000041478790891 0.9999989072185042 0.9999945037016363 O
