#=======================================================
# FHI-aims file: geometry_VH8C10N2F3.in
# Created using the Atomic Simulation Environment (ASE)
# Tue Dec 21 17:36:59 2021
#=======================================================
lattice_vector -3.7796952510000001 -0.0014744120000000 -0.9204866010000000 
lattice_vector -3.7301768690000001 0.0077753220000000 7.1233732679999999 
lattice_vector -1.9793235960000000 7.7931185080000001 -0.0785034060000000 
atom_frac 0.9999991347066554 0.5002866363033933 0.4997139598271119 V
atom_frac 0.2121765203817033 0.2712404336208394 0.8962822580879148 H
atom_frac 0.6192588399073030 0.8961582885810273 0.2717147341252756 H
atom_frac 0.3807412404434346 0.7282840478255183 0.1038414500746754 H
atom_frac 0.7878232288684404 0.1037178400694573 0.7287602685098094 H
atom_frac 0.3926917539504016 0.1264935781061070 0.4835901644848449 H
atom_frac 0.9982827418433331 0.4832889730124990 0.1263876780083137 H
atom_frac 0.0017186637437873 0.8736135880371592 0.5167122638946396 H
atom_frac 0.6073074277803910 0.5164100562977652 0.8735065635020689 H
atom_frac 0.5649202400450762 0.9348444277761061 0.9350459897735064 C
atom_frac 0.4350715716127738 0.0649527384591622 0.0651570287001917 C
atom_frac 0.5195360347687625 0.7660912331398323 0.9755991001984938 C
atom_frac 0.7385582116780681 0.9755597171350345 0.7663753145840176 C
atom_frac 0.2614356184104025 0.2336262043365451 0.0244406580820140 C
atom_frac 0.4804666546635019 0.0243993463473444 0.2339074776234328 C
atom_frac 0.6417447282903411 0.6479523147207898 0.8486099821851595 C
atom_frac 0.8610942280630096 0.8486461269878163 0.6482194651057682 C
atom_frac 0.1389015121542271 0.3517811983590776 0.1513539906719927 C
atom_frac 0.3582551138690062 0.1513897771525095 0.3520466304416772 C
atom_frac 0.8128731858952419 0.6868707644636487 0.6869506556480688 N
atom_frac 0.1871282368418434 0.3130484321168865 0.3131303404730232 N
atom_frac 0.9999980220346529 0.3259772836859228 0.6740228350622600 F
atom_frac 0.9999996660940975 0.6747037383662403 0.3252964725334166 F
atom_frac 0.4999997582288954 0.5006634664304456 0.4993372527292763 F
