#=======================================================
# FHI-aims file: geometry_Ca2V2P4H28C24O18.in
# Created using the Atomic Simulation Environment (ASE)
# Tue Dec 21 17:36:59 2021
#=======================================================
lattice_vector -7.0134917769999996 0.0624684200000000 -0.4796369250000000 
lattice_vector -1.7959820110000000 -8.2439058860000003 -2.6677508159999999 
lattice_vector -1.8531417420000000 -8.2700188669999992 12.1300484599999994 
atom_frac 0.0711484327364644 0.2761289662349997 0.9568930189163395 Ca
atom_frac 0.5712167952336102 0.2329262844172106 0.0431668475375631 Ca
atom_frac 0.2934921544046460 0.7596020012600417 0.9914048219018382 V
atom_frac 0.7935032884401851 0.7509921672010264 0.0085707360896236 V
atom_frac 0.5061139172460970 0.0607607845266146 0.8800076595464219 P
atom_frac 0.0062623628325653 0.9407197893755849 0.1199871254418951 P
atom_frac 0.6409149689935207 0.5700126820978395 0.8797036811435319 P
atom_frac 0.1410268193277417 0.4497375265794828 0.1202978972668589 P
atom_frac 0.1283061094193628 0.0522203689670847 0.8488499706871266 H
atom_frac 0.6283583283795267 0.9009669017251410 0.1511938760785724 H
atom_frac 0.9041264850692697 0.0834210320256760 0.8700541476128408 H
atom_frac 0.4041784969594532 0.9533784027438938 0.1299182726685969 H
atom_frac 0.2442919258772420 0.5521777203226320 0.8692639627012538 H
atom_frac 0.7442808934045005 0.4216029629828597 0.1307081544482429 H
atom_frac 0.0176135522576857 0.6096135585155408 0.8563902454696120 H
atom_frac 0.5176044097534530 0.4661549929294181 0.1435614668789640 H
atom_frac 0.3004643153887088 0.3418539354625028 0.7360972155249073 H
atom_frac 0.8006994886429339 0.0780692865768771 0.2637627091187866 H
atom_frac 0.3318943066442444 0.4291863642809448 0.5610423619190071 H
atom_frac 0.8317554909381426 0.9904585805244037 0.4388298488655521 H
atom_frac 0.5987007538906185 0.2802200583135032 0.4817694090083364 H
atom_frac 0.0983254926658006 0.7620852168093536 0.5182785556617658 H
atom_frac 0.8339832502847244 0.0428249678289420 0.5784729984944262 H
atom_frac 0.3337230941411917 0.6212278249783766 0.4217334310372038 H
atom_frac 0.7947925274110972 0.9485172447483736 0.7531799668942084 H
atom_frac 0.2948766729785603 0.7015470861700734 0.2470069729856874 H
atom_frac 0.3573284192448441 0.8098361224797727 0.7492351667648122 H
atom_frac 0.8575587748934552 0.5589241401388418 0.2508231681651622 H
atom_frac 0.3317259386124505 0.8945245306557156 0.5739619737452911 H
atom_frac 0.8321348990112726 0.4681540601656523 0.4261047280405988 H
atom_frac 0.5782264487120444 0.7588990713658890 0.4791994353427284 H
atom_frac 0.0787341847639738 0.2377123347723612 0.5207811921086787 H
atom_frac 0.8442707191670208 0.5323202774921112 0.5610291903369455 H
atom_frac 0.3446317311725551 0.0930375338932520 0.4388679137032412 H
atom_frac 0.8627196058740624 0.4401548312313966 0.7364212615093350 H
atom_frac 0.3628915680979646 0.1764467930119693 0.2634756392283392 H
atom_frac 0.5454664883175230 0.1391643470654173 0.7553219345991807 C
atom_frac 0.0456027508163076 0.8944371827881594 0.2446938523951231 C
atom_frac 0.4153163272045717 0.2750644346723449 0.7013017667806096 C
atom_frac 0.9154423343514255 0.9764682322923051 0.2986297937476651 C
atom_frac 0.4343489984318153 0.3246042891210054 0.6030102187377651 C
atom_frac 0.9342794331694293 0.9277519700256605 0.3969329558224786 C
atom_frac 0.5843417309527155 0.2412446376448117 0.5586583163506944 C
atom_frac 0.0841453414405534 0.7999776007114859 0.4413758219974540 C
atom_frac 0.7162359312116778 0.1078746075252043 0.6127185556084668 C
atom_frac 0.2160735699808001 0.7205546735697083 0.3873997038481392 C
atom_frac 0.6961835920710940 0.0555826488309421 0.7108558587003914 C
atom_frac 0.1962819662028465 0.7664061480977507 0.2892473774731882 C
atom_frac 0.6114311380532981 0.6199908474130355 0.7538820698168749 C
atom_frac 0.1116617279322370 0.3737314104615804 0.2461044877844856 C
atom_frac 0.4614150354899210 0.7472905004223661 0.7078353033275488 C
atom_frac 0.9617243560988628 0.4549733081866377 0.2921904177644166 C
atom_frac 0.4487021778199532 0.7955286894193634 0.6093088966241709 C
atom_frac 0.9490448354027022 0.4045557203977167 0.3907132618123228 C
atom_frac 0.5869726342892324 0.7192485929957469 0.5563118558424022 C
atom_frac 0.0873615066909537 0.2752381702729211 0.4436724779393443 C
atom_frac 0.7363640055436066 0.5923447435915177 0.6021431459614489 C
atom_frac 0.2366972627082119 0.1942197102317993 0.3978004336592278 C
atom_frac 0.7482568204547276 0.5413209365270860 0.7007582037814187 C
atom_frac 0.2485268454682767 0.2418982157423386 0.2991914522306800 C
atom_frac 0.4003891054930762 0.1961108036636789 0.9206596488619778 O
atom_frac 0.9004879985558318 0.1167422912994027 0.0793613183555593 O
atom_frac 0.3809740444504898 0.9325628778539465 0.8880570125563378 O
atom_frac 0.8811075513665189 0.8205899835958943 0.1119205186482047 O
atom_frac 0.7077965463260583 0.9840956622419623 0.9296572393885968 O
atom_frac 0.2079181593209399 0.9136900236037063 0.0703437035261628 O
atom_frac 0.0732661801998732 0.7807485936800018 0.9496131776589961 O
atom_frac 0.5732827968541443 0.7303598323293059 0.0503160097440087 O
atom_frac 0.0138683462440738 0.1390334948441705 0.8482528758396413 O
atom_frac 0.5138965361257063 0.9871717672548003 0.1517736757649857 O
atom_frac 0.1279593592052990 0.5230425368425671 0.8503305837608082 O
atom_frac 0.6279649228993591 0.3735263906590518 0.1496358818425989 O
atom_frac 0.7418372669680410 0.3926236014167443 0.9203750929317636 O
atom_frac 0.2419679935954449 0.3130512733557184 0.0796080557736758 O
atom_frac 0.4361212384480595 0.5981549041013565 0.9258988634945027 O
atom_frac 0.9361960534365537 0.5240197930540730 0.0740993269525347 O
atom_frac 0.7672929286243004 0.6861034331969761 0.8928987423543402 O
atom_frac 0.2672566094064592 0.5791002584156857 0.1070961364696714 O
