#=======================================================
# FHI-aims file: ./geometry.in
# Created using the Atomic Simulation Environment (ASE)
# Mon Feb  7 19:01:09 2022
#=======================================================
lattice_vector 8.1211218899999995 -3.0067371000000001 -2.3300135800000001 
lattice_vector -6.4678586899999999 6.9785630500000000 1.6623719500000000 
lattice_vector -0.6877660000000000 1.0735858000000000 16.0920148500000018 
atom_frac 0.5127341100000000 0.2403310100000000 0.2529976500000000 Cu
atom_frac 0.4872435700000000 0.7596380699999999 0.7470229399999998 Cu
atom_frac 0.4609142500000000 0.6764131900000000 0.2914199099999999 H
atom_frac 0.7870484700000000 -0.0212995000000000 0.2510135999999999 H
atom_frac 0.5390628300000000 0.3235553999999999 0.7086005999999999 H
atom_frac 0.2129286900000000 1.0212680700000001 0.7490069400000000 H
atom_frac 0.7046955799999999 0.6683690300000000 0.3037338800000000 H
atom_frac 0.8642175900000002 0.3352091600000001 0.1949504399999999 H
atom_frac 0.2952819199999999 0.3315999299999999 0.6962866499999999 H
atom_frac 0.1357596500000000 0.6647593900000000 0.8050701000000000 H
atom_frac 0.4239416700000000 0.2572993000000000 0.0724131800000000 H
atom_frac 0.5896329800000000 0.2500065100000001 0.4208999399999999 H
atom_frac 0.5760358200000001 0.7426694400000001 0.9276075399999999 H
atom_frac 0.4103443900000000 0.7499622200000000 0.5791206599999998 H
atom_frac 0.2844665800000001 0.2686421000000001 0.9177062599999999 H
atom_frac 0.7868326700000001 0.3271287300000001 0.5821862700000000 H
atom_frac 0.7155107900000000 0.7313263200000000 0.0823143900000000 H
atom_frac 0.2131444299999999 0.6728397899999999 0.4178343099999999 H
atom_frac 0.0113088900000000 0.2965444500000000 0.8688983299999999 H
atom_frac 0.0497996600000000 0.2951524200000000 0.6492000399999999 H
atom_frac 0.9886687900000001 0.7034242300000001 0.1311222100000000 H
atom_frac 0.9501782700000000 0.7048168900000000 0.3508205199999999 H
atom_frac 0.1057309400000001 0.5039592500000001 0.9844542799999999 H
atom_frac 0.1994200400000000 0.2790824800000001 0.5495136899999999 H
atom_frac 0.8942463400000000 0.4960092900000000 0.0155661800000000 H
atom_frac 0.8005567600000002 0.7208856900000001 0.4505068999999999 H
atom_frac 0.4214909499999998 0.7948781699999999 0.1387051900000000 C
atom_frac 0.2155717100000000 0.2225548200000000 0.4066325299999999 C
atom_frac 0.5784862300000000 0.2050904200000000 0.8613153599999999 C
atom_frac 0.7844055200000000 0.7774137600000000 0.5933880499999998 C
atom_frac 0.2740421500000000 0.5360255800000000 0.1565863100000000 C
atom_frac 0.0242590100000000 0.1992605900000000 0.3768203099999999 C
atom_frac 0.7259349800000000 0.4639429700000001 0.8434342099999999 C
atom_frac 0.9757180900000002 0.8007078600000003 0.6232002599999998 C
atom_frac 0.2776324500000001 0.4670059100000001 0.2496292500000000 C
atom_frac 0.9426383500000002 0.1885434500000002 0.2809842300000000 C
atom_frac 0.7223447800000001 0.5329627300000001 0.7503912900000000 C
atom_frac 0.0573388900000000 0.8114251400000001 0.7190363399999999 C
atom_frac 0.4218094900000001 0.4317919600000000 0.2737385600000000 C
atom_frac 0.7371629700000001 0.1612816000000000 0.2445265000000000 C
atom_frac 0.5781679800000001 0.5681769300000001 0.7262820000000000 C
atom_frac 0.2628143599999999 0.8386870799999999 0.7554940699999999 C
atom_frac 0.2727500100000000 0.3034053900000001 0.1219616000000000 C
atom_frac 0.7670722000000001 0.2060720000000001 0.3908132799999999 C
atom_frac 0.7272272500000000 0.6965632300000001 0.8780589699999999 C
atom_frac 0.2329049800000002 0.7938965600000001 0.6092072799999999 C
atom_frac 0.2329433400000000 0.1896653400000000 0.0557075200000000 C
atom_frac 0.6434628100000001 0.1774748200000000 0.4466838000000000 C
atom_frac 0.7670340300000001 0.8103032600000001 0.9443131199999999 C
atom_frac 0.3565143599999999 0.8224937300000000 0.5533367699999999 C
atom_frac 0.1445505300000000 0.1952839800000000 0.9588811299999999 C
atom_frac 0.7552123300000000 0.2179462200000000 0.5451937599999999 C
atom_frac 0.8554269000000000 0.8046845900000000 0.0411395000000000 C
atom_frac 0.2447650800000000 0.7820225600000000 0.4548268200000000 C
atom_frac 0.0957179000000001 0.3088489100000000 0.9382107399999998 C
atom_frac 0.9773958800000001 0.2751718700000000 0.5778045500000000 C
atom_frac 0.9042595500000001 0.6911196800000001 0.0618098300000000 C
atom_frac 0.0225815900000000 0.7247969999999999 0.4222160099999999 C
atom_frac 0.1318536000000000 0.4089528900000001 1.0021790399999997 C
atom_frac 0.0499256900000000 0.2575080500000000 0.5237802099999999 C
atom_frac 0.8681236400000000 0.5910156200000000 -0.0021585200000000 C
atom_frac 0.9500509900000002 0.7424600000000001 0.4762403499999999 C
atom_frac 0.2144352300000000 0.4078916200000000 0.0936780200000000 C
atom_frac 0.9481602800000000 0.2179245700000001 0.4305158799999999 C
atom_frac 0.7855419000000000 0.5920769000000001 0.9063425199999998 C
atom_frac 0.0518165600000000 0.7820436400000002 0.5695046799999999 C
atom_frac 0.3811992800000000 0.3235297500000000 0.2053757100000000 N
atom_frac 0.6826423800000002 0.1945869700000001 0.3047362700000000 N
atom_frac 0.6187781600000000 0.6764390900000000 0.7946448799999998 N
atom_frac 0.3173351000000000 0.8053818900000000 0.6952842900000000 N
atom_frac 0.3926686900000000 0.8496985300000001 0.1988062700000000 O
atom_frac 0.2682555600000000 0.2123871900000000 0.3369626299999999 O
atom_frac 0.6073085200000001 0.1502700500000001 0.8012143099999999 O
atom_frac 0.7317221700000002 0.7875818800000002 0.6630579799999999 O
atom_frac 0.5970422299999999 0.9813381199999999 0.0847844600000000 O
atom_frac 0.3311463700000001 0.2416833400000001 0.4805981399999999 O
atom_frac 0.4029349200000000 0.0186305000000000 0.9152360899999998 O
atom_frac 0.6688304500000000 0.7582848300000001 0.5194224399999999 O
