#=======================================================
# FHI-aims file: ./geometry.in
# Created using the Atomic Simulation Environment (ASE)
# Mon Feb  7 19:01:08 2022
#=======================================================
lattice_vector 7.1797928400000002 -0.0000035900000000 -0.6317504000000000 
lattice_vector -0.0000056600000000 8.5516450600000002 0.0001166900000000 
lattice_vector -0.0618910000000000 -0.0000157800000000 15.3917835600000004 
atom_frac 0.6026662800000000 0.8881276299999999 0.5225964200000001 Cu
atom_frac 0.8973335899999999 0.3881276800000000 0.4774035100000000 Cu
atom_frac 0.3973339700000000 0.1118724500000000 0.4774036200000000 Cu
atom_frac 0.1026666500000000 0.6118723999999999 0.5225965100000001 Cu
atom_frac 0.5581188700000000 0.5419794999999999 0.6071563200000001 H
atom_frac 0.9418818500000000 0.0419809400000000 0.3928451000000000 H
atom_frac 0.4418813599999999 0.4580205500000000 0.3928437200000000 H
atom_frac 0.0581183900000000 0.9580191400000002 0.6071549200000002 H
atom_frac 0.4435132400000000 0.4989297300000000 0.7576082900000001 H
atom_frac 0.0564870800000000 -0.0010715600000000 0.2423931500000001 H
atom_frac 0.5564870100000000 0.5010703399999999 0.2423917500000000 H
atom_frac 0.9435131699999999 1.0010716400000002 0.7576068800000002 H
atom_frac 0.5284629999999999 0.1084067000000000 0.6787162900000001 H
atom_frac 0.9715392800000000 0.6084065100000000 0.3212835200000000 H
atom_frac 0.4715372700000000 0.8915933900000000 0.3212837500000000 H
atom_frac 0.0284609900000000 0.3915935800000000 0.6787165100000001 H
atom_frac 0.3267202200000000 0.7016411799999999 0.8955740800000002 H
atom_frac 0.1732797500000000 0.2016404000000000 0.1044256900000000 H
atom_frac 0.6732800199999999 0.2983589100000000 0.1044259500000000 H
atom_frac 0.8267204999999999 0.7983596700000000 0.8955743500000001 H
atom_frac 0.6991818099999999 0.0931146800000000 0.5263611200000001 C
atom_frac 0.8008173399999999 0.5931147500000000 0.4736386700000000 C
atom_frac 0.3008184500000000 0.9068853899999999 0.4736389200000001 C
atom_frac 0.1991829000000000 0.4068853300000000 0.5263613600000001 C
atom_frac 0.5240008200000000 0.6352439400000001 0.6514137300000000 C
atom_frac 0.9759995499999999 0.1352443200000000 0.3485869600000001 C
atom_frac 0.4759994200000000 0.3647561300000000 0.3485863100000001 C
atom_frac 0.0240006900000000 0.8647557600000000 0.6514130700000001 C
atom_frac 0.4867154200000000 0.8618848200000001 0.7074293000000001 C
atom_frac 0.0132853500000000 0.3618844000000000 0.2925706800000001 C
atom_frac 0.5132848400000000 0.1381152600000000 0.2925707300000001 C
atom_frac 0.9867148900000000 0.6381156900000000 0.7074293600000001 C
atom_frac 0.4299287500000000 0.7491629300000000 0.7679393900000001 C
atom_frac 0.0700722500000000 0.2491620500000000 0.2320608400000000 C
atom_frac 0.5700715000000000 0.2508371500000000 0.2320606400000000 C
atom_frac 0.9299279999999999 0.7508380400000000 0.7679392000000002 C
atom_frac 0.4850604700000000 0.0218064000000000 0.7251543100000001 C
atom_frac 0.0149432600000000 0.5218058999999999 0.2748460000000000 C
atom_frac 0.5149397999999999 0.9781936699999998 0.2748457200000001 C
atom_frac 0.9850570000000000 0.4781941800000000 0.7251540400000002 C
atom_frac 0.3674859400000000 0.7883683500000002 0.8484604700000001 C
atom_frac 0.1325182200000000 0.2883675000000000 0.1515403300000000 C
atom_frac 0.6325143199999999 0.2116317300000000 0.1515395700000000 C
atom_frac 0.8674820499999999 0.7116325799999998 0.8484597000000001 C
atom_frac 0.4252157600000000 0.0592090600000000 0.8052273900000000 C
atom_frac 0.0747833100000000 0.5592081199999999 0.1947719100000000 C
atom_frac 0.5747845000000000 0.9407910100000000 0.1947726400000000 C
atom_frac 0.9252169499999999 0.4407919700000000 0.8052281300000002 C
atom_frac 0.3666799900000000 0.9478362199999999 0.8643121900000000 C
atom_frac 0.1333194000000000 0.4478351200000000 0.1356870300000000 C
atom_frac 0.6333202599999999 0.0521638600000000 0.1356878400000000 C
atom_frac 0.8666808599999999 0.5521649600000000 0.8643130000000002 C
atom_frac 0.4197870000000000 0.2118156300000000 0.8470849400000001 C
atom_frac 0.0802014400000000 0.7118141100000001 0.1529123400000000 C
atom_frac 0.5802132300000000 0.7881844499999999 0.1529150800000000 C
atom_frac 0.9197987800000000 0.2881859600000000 0.8470876800000001 C
atom_frac 0.3180085300000000 0.0342973500000000 0.9413502400000001 C
atom_frac 0.1819807600000000 0.5342962900000000 0.0586466900000000 C
atom_frac 0.6819916899999999 0.9657027499999997 0.0586497800000000 C
atom_frac 0.8180194700000000 0.4657037900000000 0.9413533300000001 C
atom_frac 0.7045506099999999 0.7054548699999998 0.4725631200000001 N
atom_frac 0.7954493199999999 0.2054540600000000 0.5274366100000001 N
atom_frac 0.2954496400000000 0.2945452100000000 0.5274369100000001 N
atom_frac 0.2045509200000000 0.7945460300000000 0.4725634200000000 N
atom_frac 0.5436242299999999 0.7864502299999999 0.6359776900000002 N
atom_frac 0.9563754100000000 0.2864507300000000 0.3640223200000001 N
atom_frac 0.4563760199999999 0.2135498300000000 0.3640223400000000 N
atom_frac 0.0436248300000000 0.7135493500000000 0.6359777100000000 N
atom_frac 0.4561541199999999 0.6077577700000001 0.7290375400000000 N
atom_frac 0.0438455000000000 0.1077570300000000 0.2709630900000001 N
atom_frac 0.5438461200000000 0.3922423100000000 0.2709625000000000 N
atom_frac 0.9561547399999999 0.8922430500000000 0.7290369400000001 N
atom_frac 0.3535466899999999 0.1939951100000000 0.9268993900000001 O
atom_frac 0.1464770000000000 0.6939959900000000 0.0731052000000000 O
atom_frac 0.6464536200000000 0.8060049600000000 0.0731006500000000 O
atom_frac 0.8535233699999999 0.3060041000000000 0.9268948500000002 O
atom_frac 0.4686792799999999 0.3387453000000001 0.8224165100000003 O
atom_frac 0.0313245500000000 0.8387452899999999 0.1775830500000000 O
atom_frac 0.5313210200000000 0.6612547599999999 0.1775835200000000 O
atom_frac 0.9686757299999998 0.1612547900000000 0.8224169800000001 O
atom_frac 0.2622779099999999 0.9940991099999998 0.0089369900000000 O
atom_frac 0.2377264500000000 0.4941001100000000 0.9910627000000001 O
atom_frac 0.7377223300000000 0.0059009900000000 0.9910630400000001 O
atom_frac 0.7622738300000000 0.5058999700000000 0.0089373400000000 O
