#=======================================================
# FHI-aims file: ./geometry.in
# Created using the Atomic Simulation Environment (ASE)
# Mon Feb  7 19:01:14 2022
#=======================================================
lattice_vector 4.8996503100000002 0.0679268200000000 0.0009350700000000 
lattice_vector -2.2475944200000000 7.5603637900000003 0.0019629400000000 
lattice_vector -0.0008315300000000 -0.0010092400000000 20.3924268300000016 
atom_frac 0.5592043400000001 0.3653574400000000 0.5486035400000000 Cu
    initial_moment         1.000000
atom_frac 0.9423103400000000 0.6357069400000002 0.0488015500000000 Cu
    initial_moment         1.000000
atom_frac 0.4420541099999999 0.6355288700000000 0.4512164900000001 Cu
    initial_moment        -1.000000
atom_frac 0.0594473400000000 0.3656788100000000 0.9514234100000000 Cu
    initial_moment        -1.000000
atom_frac 0.4990270200000000 0.9995521200000000 0.4994310100000001 Cu
    initial_moment        -1.000000
atom_frac 0.9996207900000001 -0.0001793200000000 1.0004904900000000 Cu
    initial_moment         1.000000
atom_frac 0.0597883000000000 0.2543703200000000 0.4397488700000000 P
atom_frac 0.4410406000000001 0.7460622600000001 0.9396511199999998 P
atom_frac 0.9406836900000000 0.7456810600000001 0.5603709700000000 P
atom_frac 0.5600123299999999 0.2544623800000000 0.0602643200000000 P
atom_frac 0.1919544800000000 0.0802037800000000 0.5788428600000000 H
atom_frac 0.3077202800000000 0.9209724599999999 0.0794618600000000 H
atom_frac 0.8077663600000000 0.9208020500000000 0.4205703700000000 H
atom_frac 0.6921618000000000 0.0805912000000000 0.9212309400000001 H
atom_frac 0.5586600500000000 0.2415698200000000 0.3581599700000000 H
atom_frac 0.9418380800000001 0.7581457600000001 0.8581437800000000 H
atom_frac 0.4415892900000002 0.7577098600000001 0.6418291900000000 H
atom_frac 0.0587771300000000 0.2415363000000000 0.1418381600000000 H
atom_frac 0.4349911400000001 0.4785491000000000 0.2906378300000000 H
atom_frac 0.0647754300000000 0.5210020600000000 0.7905763700000000 H
atom_frac 0.5644259500000000 0.5205122200000000 0.7094105200000000 H
atom_frac 0.9348451100000000 0.4784052000000000 0.2093430500000000 H
atom_frac 0.7690373400000001 0.7846390000000001 0.2927230900000000 H
atom_frac 0.7302134300000002 0.2150694500000000 0.7927726499999999 H
atom_frac 0.2299319800000000 0.2145778500000000 0.7072618500000000 H
atom_frac 0.2688352600000000 0.7845303600000000 0.2072319900000000 H
atom_frac 0.2304370700000000 0.8354570300000002 0.3531558100000000 H
atom_frac 0.2692791500000000 0.1645151400000000 0.8534016999999999 H
atom_frac 0.7691104500000000 0.1640211900000001 0.6466335500000000 H
atom_frac 0.7303591200000001 0.8354731700000000 0.1467933800000000 H
atom_frac 0.9648302500000000 0.4125047600000001 0.3855525000000000 C
atom_frac 0.5354556800000001 0.5874727700000001 0.8855754500000000 C
atom_frac 0.0352432000000001 0.5870262600000001 0.6144093100000000 C
atom_frac 0.4649122800000000 0.4125587000000001 0.1144280900000000 C
atom_frac 0.7074572000000000 0.3729346200000000 0.3528658100000000 C
atom_frac 0.7929035100000001 0.6268361200000001 0.8528927399999999 C
atom_frac 0.2926400300000001 0.6263899700000001 0.6470841800000000 C
atom_frac 0.2074836000000000 0.3729198600000000 0.1471205400000000 C
atom_frac 0.6337611700000000 0.5062886000000000 0.3179516700000000 C
atom_frac 0.8661244900000001 0.4933909800000000 0.8179556199999999 C
atom_frac 0.3658190300000000 0.4929173100000000 0.6820368199999999 C
atom_frac 0.1336717200000000 0.5062075300000000 0.1820271400000000 C
atom_frac 0.8229381099999999 0.6744501600000001 0.3167533199999999 C
atom_frac 0.6766629700000000 0.3253208400000000 0.8168219999999999 C
atom_frac 0.1763903800000000 0.3248355200000000 0.6831948200000000 C
atom_frac 0.3228110800000000 0.6743801300000001 0.1832109500000000 C
atom_frac 0.0783832400000000 0.7051664600000001 0.3498579600000000 C
atom_frac 0.4213454600000000 0.2947583700000000 0.8499967699999998 C
atom_frac 0.9211303600000001 0.2942750200000001 0.6500199300000000 C
atom_frac 0.5783287300000000 0.7051682800000000 0.1501066400000000 C
atom_frac 0.1464017000000000 0.5765495300000000 0.3837650500000000 N
atom_frac 0.3536916600000001 0.4235836700000002 0.8838439499999999 N
atom_frac 0.8535187900000001 0.4231237400000000 0.6161588200000000 N
atom_frac 0.6464576000000001 0.5766093500000001 0.1162080100000000 N
atom_frac 0.8170556400000001 0.2031884200000000 0.4899645200000000 O
atom_frac 0.6836068300000000 0.7960456600000001 0.9899091400000000 O
atom_frac 0.1831249700000000 0.7957797300000000 0.5100316900000000 O
atom_frac 0.3176566400000000 0.2033888400000000 0.0099988100000000 O
atom_frac 0.1263201400000000 0.1039282100000000 0.4035839600000001 O
atom_frac 0.3760462600000001 0.8967732100000001 0.9033557499999999 O
atom_frac 0.8758778000000002 0.8963215500000001 0.5967244900000001 O
atom_frac 0.6262350800000001 0.1039588000000000 0.0964749400000000 O
atom_frac 0.3216201900000000 0.3846631700000001 0.4743660200000000 O
atom_frac 0.1771054600000001 0.6168237200000001 0.9739754500000000 O
atom_frac 0.6766768000000000 0.6165378200000000 0.5261009400000000 O
atom_frac 0.8221253900000000 0.3847818000000001 0.0256905600000000 O
atom_frac 0.3994013800000000 0.1254902600000000 0.5713272800000000 O
atom_frac 0.0996184900000001 0.8752261900000001 0.0729128300000000 O
atom_frac 0.5996281100000002 0.8750375400000001 0.4270697600000000 O
atom_frac 0.8996551300000000 0.1258732700000000 0.9286581600000001 O
