#=======================================================
# FHI-aims file: ./geometry.in
# Created using the Atomic Simulation Environment (ASE)
# Mon Feb  7 19:01:09 2022
#=======================================================
lattice_vector -5.4121594300000000 -0.0239082700000000 -0.3422851200000000 
lattice_vector -2.7370720099999999 6.8273058400000002 -0.1748438500000000 
lattice_vector 0.3029083300000000 -0.0008951900000000 -8.7315261900000003 
atom_frac 0.1928573599999999 0.6142483200000000 0.0000036800000000 Fe
    initial_moment         2.000000
atom_frac 0.8071423600000002 0.3857522200000000 0.9999964699999999 Fe
atom_frac 0.9475839200000000 0.6850028400000000 0.3421853200000000 H
atom_frac 0.3673073900000002 0.6851613599999999 0.6578393399999998 H
atom_frac 0.0524146800000000 0.3149977200000000 0.6578146100000000 H
atom_frac 0.6326945800000001 0.3148393000000000 0.3421610500000000 H
atom_frac 0.7219710300000001 -0.0001216800000000 0.4798761100000000 H
atom_frac 0.2780289400000002 1.0001221199999997 0.5201240800000000 H
atom_frac 0.9079106099999998 0.8240908600000002 0.2827727999999999 C
atom_frac 0.2679100400000000 0.8242196200000003 0.7172394100000000 C
atom_frac 0.0920890700000000 0.1759096700000000 0.7172273100000000 C
atom_frac 0.7320897399999999 0.1757809000000000 0.2827607700000000 C
atom_frac 0.7833608400000001 -0.0000824800000000 0.3598939100000000 C
atom_frac 0.2166389000000000 1.0000829899999999 0.6401062500000000 C
atom_frac 0.9407657200000001 -0.0000169000000000 0.0720377100000000 C
atom_frac 0.0592338300000000 1.0000174500000001 0.9279623899999997 C
atom_frac 0.9838236300000002 0.8220738900000000 0.1341852500000000 N
atom_frac 0.1940205800000001 0.8221373900000000 0.8658198800000000 N
atom_frac 0.0161761700000000 0.1779266700000000 0.8658148900000000 N
atom_frac 0.8059789600000002 0.1778631500000000 0.1341802500000000 N
atom_frac 0.1006475200000000 0.4145233000000000 0.1133515400000000 N
atom_frac 0.4848061400000000 0.4146037200000000 0.8866485499999999 N
atom_frac 0.8993522500000000 0.5854771600000001 0.8866485700000000 N
atom_frac 0.5151935400000002 0.5853968500000000 0.1133516000000000 N
atom_frac 0.1352236700000000 0.3595944600000000 0.2451553000000000 N
atom_frac 0.5051252300000000 0.3596879500000000 0.7548674700000000 N
atom_frac 0.8647761200000003 0.6404059899999999 0.7548448199999997 N
atom_frac 0.4948744800000000 0.6403124400000000 0.2451327300000000 N
atom_frac 0.1699768500000001 0.3012678599999998 0.3694971200000000 N
atom_frac 0.5287004400000000 0.3013446600000000 0.6305570900000000 N
atom_frac 0.8300241100000000 0.6987324900000000 0.6305029400000000 N
atom_frac 0.4712995600000001 0.6986555500000002 0.3694431499999999 N
