#=======================================================
# FHI-aims file: ./geometry.in
# Created using the Atomic Simulation Environment (ASE)
# Mon Feb  7 19:01:12 2022
#=======================================================
lattice_vector -4.7463251700000004 1.0919304400000001 -0.0258931300000000 
lattice_vector 0.2070752300000000 -7.5305261100000003 -4.0111327000000001 
lattice_vector -0.8516953500000000 -7.7581390099999998 5.4534146400000001 
atom_frac 0.5000337500000001 0.1533306000000001 0.6936201000000000 Co
    initial_moment         1.000000
atom_frac 0.4999569000000000 0.8466625800000001 0.3063773299999999 Co
    initial_moment        -3.000000
atom_frac 0.9030804000000000 0.8846594499999999 0.7444333100000000 H
atom_frac 0.0971071300000000 0.3711223599999998 0.7448730000000001 H
atom_frac 0.0969226600000000 0.1153382900000000 0.2555683599999999 H
atom_frac 0.9029075000000000 0.6288927700000001 0.2551297400000000 H
atom_frac 0.0547731300000000 0.6540432599999998 0.9996219600000001 H
atom_frac 0.9452497799999999 0.3459686600000000 0.0003823900000000 H
atom_frac 0.5829366900000000 0.9413360100000002 0.9999733700000000 C
atom_frac 0.4170516000000000 0.0586623600000000 0.0000225600000000 C
atom_frac 0.8301717899999999 0.8644572300000000 0.8575361600000000 C
atom_frac 0.1699797000000000 0.2780748499999999 0.8579060600000001 C
atom_frac 0.1698308800000000 0.1355431900000000 0.1424645400000000 C
atom_frac 0.8300273500000001 0.7219326300000001 0.1420952100000000 C
atom_frac 0.9173093700000000 0.7392119600000001 0.9997623499999999 C
atom_frac 0.0827023700000000 0.2607950800000000 0.0002396500000000 C
atom_frac 0.3632169700000000 0.9335953900000000 0.5309477300000000 C
atom_frac 0.6368611400000002 0.5354280500000000 0.5309936699999999 C
atom_frac 0.6367824199999998 0.0664027299999999 0.4690493800000001 C
atom_frac 0.3631313500000000 0.4645662200000000 0.4690078700000000 C
atom_frac 0.6616983700000000 0.9700762599999998 0.8579319800000001 N
atom_frac 0.3383810400000000 0.1721502300000000 0.8580169300000000 N
atom_frac 0.3383031400000000 0.0299263100000000 0.1420652100000000 N
atom_frac 0.6616053700000000 0.8278485200000000 0.1419792700000000 N
atom_frac 0.2454347000000000 0.9339260700000001 0.6414799100000002 O
atom_frac 0.7546228900000002 0.4246565299999999 0.6416113600000000 O
atom_frac 0.7545664900000000 0.0660728800000000 0.3585177200000000 O
atom_frac 0.2453674300000000 0.5753399900000000 0.3583931000000000 O
atom_frac 0.2768733500000000 0.8324251600000000 0.4643676600000000 O
atom_frac 0.7233288400000000 0.7030409100000000 0.4643911600000000 O
atom_frac 0.7231226700000000 0.1675727899999999 0.5356301900000001 O
atom_frac 0.2766641800000000 0.2969534399999999 0.5356062500000001 O
