#=======================================================
# FHI-aims file: ./geometry.in
# Created using the Atomic Simulation Environment (ASE)
# Mon Feb  7 19:01:10 2022
#=======================================================
lattice_vector 3.8690144599999998 -0.2726115000000000 -1.0524143399999999 
lattice_vector -3.2273146900000000 6.5031237500000003 -2.0569443500000002 
lattice_vector 0.3993855200000000 -0.3310711900000000 11.2262847699999995 
atom_frac 0.4997470800000001 0.6410652100000002 0.5903422600000000 Cu
    initial_moment         1.000000
atom_frac 0.5002505600000000 0.3589337300000000 0.4096570400000000 Cu
    initial_moment        -1.000000
atom_frac 0.9682030500000002 0.5698752500000001 0.1323754200000000 H
atom_frac 0.0317966200000001 0.4301249200000001 0.8676240600000001 H
atom_frac 1.0367030900000005 0.8639899400000002 0.4101311900000000 H
atom_frac -0.0367032100000000 0.1360098500000000 0.5898683999999998 H
atom_frac 0.7936527400000002 0.0859993800000000 0.4257257899999999 H
atom_frac 0.2063458899999998 0.9140002100000000 0.5742737099999999 H
atom_frac 0.6530890900000000 0.7118986600000000 0.0273471500000000 H
atom_frac 0.3469091800000000 0.2881004300000000 0.9726523899999999 H
atom_frac 0.2741163500000000 0.1649427000000000 0.1177652100000000 H
atom_frac 0.7258818300000002 0.8350563200000000 0.8822340900000001 H
atom_frac 0.1977527400000000 0.7675361600000000 0.9508320400000000 H
atom_frac 0.8022455400000003 0.2324629300000000 0.0491673800000000 H
atom_frac 0.2784538000000000 0.6071022300000000 0.3293453700000000 C
atom_frac 0.7215452600000002 0.3928972999999999 0.6706540699999999 C
atom_frac 1.0360237600000004 0.6450499899999999 0.2418621800000000 C
atom_frac -0.0360242700000000 0.3549497700000000 0.7581372999999998 C
atom_frac 0.9502946600000002 0.8007742800000001 0.2998782500000000 C
atom_frac 0.0497046900000000 0.1992253800000000 0.7001213199999999 C
atom_frac 0.7899369600000000 0.8965331300000000 0.2382551200000000 C
atom_frac 0.2100615600000000 0.1034661700000000 0.7617443899999999 C
atom_frac 0.6840874100000006 1.0325236800000004 0.3155685200000001 C
atom_frac 0.3159112700000000 -0.0325242700000000 0.6844309500000000 C
atom_frac 0.7622867200000003 0.8800083500000003 0.0990700700000000 C
atom_frac 0.2377116000000000 0.1199907900000000 0.9009293899999999 C
atom_frac 0.2296234500000000 0.0156556400000000 0.1253356900000000 C
atom_frac 0.7703748200000003 0.9843434800000003 0.8746637400000000 C
atom_frac 0.4319663900000000 0.9272371700000001 0.0346264700000000 C
atom_frac 0.5680319600000000 0.0727619000000000 0.9653729599999999 C
atom_frac 0.4305239900000000 0.0882030400000000 0.2710162400000000 N
atom_frac 0.5694746200000000 0.9117963300000000 0.7289831899999999 N
atom_frac 0.4450074200000003 0.7379012700000002 0.4605759100000000 O
atom_frac 0.5549912400000000 0.2620980100000000 0.5394235400000000 O
atom_frac 0.3523272900000000 0.4551782000000000 0.2821736000000000 O
atom_frac 0.6476716900000000 0.5448213000000000 0.7178258300000000 O
