#=======================================================
# FHI-aims file: geometry_Co2H44C64N8O10.in
# Created using the Atomic Simulation Environment (ASE)
# Tue Dec 21 18:30:52 2021
#=======================================================
lattice_vector 10.5580485599999996 0.0130897250000000 -0.2870210810000000 
lattice_vector -1.4387069589999999 9.9831206510000001 -4.2894559570000004 
lattice_vector 0.1268661350000000 -0.0792980930000000 13.1578637159999996 
atom_frac 0.4156532781096801 0.1729880667860186 0.2594202235594452 Co
atom_frac 0.5843521683533623 0.8270157168967458 0.7405813811988011 Co
atom_frac 0.6526232890921619 0.1456494378318993 0.1137299734183372 H
atom_frac 0.3473735620829217 0.8543462910632228 0.8862650179802073 H
atom_frac 0.6522813714640564 0.2146564725869170 0.9312916027926050 H
atom_frac 0.3477162686192016 0.7853382692743764 0.0687053640478226 H
atom_frac 0.2874439079653897 0.2385576979990135 0.0617019006644597 H
atom_frac 0.7125542636293574 0.7614340424868047 0.9382956193270928 H
atom_frac 0.5209075639014672 0.1503792638057675 0.7633584674402201 H
atom_frac 0.4790929330981157 0.8496154626910979 0.2366370367076201 H
atom_frac 0.4574622694297688 0.2340279354721915 0.6204079942762702 H
atom_frac 0.5425387090522521 0.7659708439560905 0.3795934016385020 H
atom_frac 0.2432137049620451 0.5118140235636660 0.8607363183881986 H
atom_frac 0.7567850314551378 0.4881746912985391 0.1392587075690628 H
atom_frac 0.3104200919239375 0.4327813760505633 0.0034301739933653 H
atom_frac 0.6895768921759711 0.5672083390496639 0.9965643798146787 H
atom_frac 0.8550375642295905 0.7570592709519702 0.7101841459419307 H
atom_frac 0.1449681313650188 0.2429395151997724 0.2898188750657269 H
atom_frac 0.5082425899579589 0.4953363423137915 0.5974320703958612 H
atom_frac 0.4917585962733141 0.5046704046307154 0.4025635674366512 H
atom_frac 0.7062251654615821 0.3427821322358469 0.5580169036531473 H
atom_frac 0.2937722338178475 0.6572176010944376 0.4419778851415189 H
atom_frac 0.8872988432035243 0.3019293204784788 0.6094892125774081 H
atom_frac 0.1127017450195780 0.6980664404683526 0.3905104307993952 H
atom_frac 0.1082213655446651 0.2533619980383719 0.6228394762231488 H
atom_frac 0.8917791064717022 0.7466327466445861 0.3771583133137426 H
atom_frac 0.2573843368439341 0.6567615578446181 0.6696120812153411 H
atom_frac 0.7426142416652084 0.3432331889985889 0.3303856677214725 H
atom_frac 0.0368343537896862 0.7056620913563664 0.6521209584354041 H
atom_frac 0.9631650052998993 0.2943316745150355 0.3478795277396572 H
atom_frac 0.6351149031675475 0.0609612674598807 0.5601290754331458 H
atom_frac 0.3648788332503018 0.9390405815250709 0.4398792431937794 H
atom_frac 0.8303605435169176 0.9993958376926317 0.6160099834713648 H
atom_frac 0.1696280189075168 0.0006030345836692 0.3840010518955239 H
atom_frac 0.0078812662532641 0.0304990371635299 0.3315178254125897 H
atom_frac 0.9921184493400546 0.9695058905045074 0.6685007473124074 H
atom_frac 0.8078950744735278 0.0883832441347536 0.2757407303323092 H
atom_frac 0.1921075480025394 0.9116216317966422 0.7242718089219765 H
atom_frac 0.2290362121427876 0.7986979373604656 0.2403070828744732 H
atom_frac 0.7709626319029328 0.2013198715664687 0.7596936300698687 H
atom_frac 0.1378267286892054 0.5610916018030068 0.1605243021226387 H
atom_frac 0.8621800880346983 0.4389221929676664 0.8394767961259076 H
atom_frac 0.9283081130730153 0.6258676568541617 0.9051116506565009 H
atom_frac 0.0717039277359746 0.3741350423835499 0.0948806243985629 H
atom_frac 0.0153066205924901 0.8652524120481289 0.9903085878684408 H
atom_frac 0.9846910526764958 0.1347563414344393 0.0096868674619799 H
atom_frac 0.5775792518094959 0.1761498604656637 0.0757352797555555 C
atom_frac 0.4224193100441694 0.8238448985016048 0.9242639927739731 C
atom_frac 0.5784843677025435 0.2090027039553136 0.9856657115470144 C
atom_frac 0.4215171922573974 0.7909930377253006 0.0143316667407661 C
atom_frac 0.3877004431339017 0.2267357772406910 0.0540430685399116 C
atom_frac 0.6122982848929298 0.7732599616182513 0.9459534870514120 C
atom_frac 0.4190100683657860 0.2863980660802454 0.8912090037179894 C
atom_frac 0.5809894485692270 0.7135966857448750 0.1087895273152242 C
atom_frac 0.4622394100138293 0.2313797450148627 0.7845396413532910 C
atom_frac 0.5377590356330941 0.7686139976885330 0.2154577773363259 C
atom_frac 0.4272041894645967 0.2774552424720014 0.7049494394451798 C
atom_frac 0.5727992640025691 0.7225404970483639 0.2950479794426712 C
atom_frac 0.3478702420180895 0.3774934214441287 0.7333832988800069 C
atom_frac 0.6521292915724005 0.6225013182569228 0.2666137085604987 C
atom_frac 0.3036912998981903 0.4325521856378673 0.8396909705904393 C
atom_frac 0.6963049781893247 0.5674395570081926 0.1603065088010354 C
atom_frac 0.3403464159369065 0.3873019875443192 0.9191584344455634 C
atom_frac 0.6596515149166251 0.6126877264757838 0.0808361396625230 C
atom_frac 0.7884507846351596 0.6661546730273074 0.6686551340642879 C
atom_frac 0.2115541137235368 0.3338451062203022 0.3313466732978371 C
atom_frac 0.6103939058649103 0.5273574680944578 0.6130427192276428 C
atom_frac 0.3896048054438239 0.4726453008232596 0.3869561277940861 C
atom_frac 0.7078378559097089 0.4505124839311848 0.5941616369662555 C
atom_frac 0.2921624831818265 0.5494882745466683 0.4058365901611367 C
atom_frac 0.9472081394911953 0.5083658980926631 0.6326355108782452 C
atom_frac 0.0527947408257887 0.4916328731133462 0.3673651638402475 C
atom_frac 0.9672675063746965 0.3803524557495236 0.6225335243752141 C
atom_frac 0.0327318860258359 0.6196412858737473 0.3774639146144381 C
atom_frac 0.0912880841802064 0.3523338440880437 0.6297277650705837 C
atom_frac 0.9087104943289289 0.6476609027551631 0.3702699838662369 C
atom_frac 0.1945706405805439 0.4524590814517921 0.6476886644949360 C
atom_frac 0.8054284944232962 0.5475326458298326 0.3523073522039439 C
atom_frac 0.1756349931373579 0.5797623521732902 0.6560879643606867 C
atom_frac 0.8243653293613136 0.4202314004939255 0.3439110185217018 C
atom_frac 0.0514057317198890 0.6070953965613411 0.6476760724898156 C
atom_frac 0.9485945907787826 0.3928983561058815 0.3523229103925729 C
atom_frac 0.5899190535226991 0.1265803601155184 0.3870065987983438 C
atom_frac 0.4100798569511852 0.8734174476433695 0.6129982352509131 C
atom_frac 0.7102148730188347 0.0858591169415277 0.4173926451712263 C
atom_frac 0.2897822518268214 0.9141397153035130 0.5826147639142222 C
atom_frac 0.7185835999796737 0.0582690675815982 0.5122846220473605 C
atom_frac 0.2814114901061799 0.9417357866806172 0.4877239458248681 C
atom_frac 0.8305177922650770 0.0228202948187075 0.5431278905394166 C
atom_frac 0.1694741585245438 0.9771825786523892 0.4568830031236999 C
atom_frac 0.9395646578581066 0.0159985910722114 0.4819095449237381 C
atom_frac 0.0604304322903602 0.9839992452552977 0.5180982551107861 C
atom_frac 0.9282264836053001 0.0394058226681153 0.3842880743150445 C
atom_frac 0.0717708403428786 0.9605950663528018 0.6157260896356362 C
atom_frac 0.8156496585619379 0.0726975162601775 0.3522746200253337 C
atom_frac 0.1843543509557151 0.9273033227656526 0.6477343534511347 C
atom_frac 0.1929067956623314 0.9900037891064599 0.1632115983271022 C
atom_frac 0.8070852882458722 0.0100130232415196 0.8367886422697807 C
atom_frac 0.1287693184881888 0.8478074277602448 0.1205501261164699 C
atom_frac 0.8712283380626998 0.1522083557810987 0.8794476206443633 C
atom_frac 0.1613772152078212 0.7602423305806527 0.1676369891070025 C
atom_frac 0.8386267945661957 0.2397714431822494 0.8323610010560287 C
atom_frac 0.1103447060765319 0.6255005222124623 0.1212079888008120 C
atom_frac 0.8896621439583329 0.3745132483100804 0.8787900622623185 C
atom_frac 0.0256965211888200 0.5722085646850984 0.0252654144243962 C
atom_frac 0.9743191570543105 0.4278001561510863 0.9747289030140109 C
atom_frac 0.9925784208542725 0.6619889857874386 0.9798280182981288 C
atom_frac 0.0074343009212754 0.3380187220252396 0.0201643844002533 C
atom_frac 0.0419116565267501 0.7975044072093168 0.0268774298650385 C
atom_frac 0.9580902189988193 0.2025073422481256 0.9731175738144415 C
atom_frac 0.4582507671920625 0.1879913470031269 0.1177667034164003 N
atom_frac 0.5417471386156335 0.8120054031377818 0.8822309239184420 N
atom_frac 0.4580653269527276 0.2411981582578235 0.9727379427485090 N
atom_frac 0.5419350371846363 0.7587955640992307 0.0272572311521203 N
atom_frac 0.8206352916985935 0.5396184225242209 0.6299988557757743 N
atom_frac 0.1793666335370432 0.4603803558239435 0.3700025604390406 N
atom_frac 0.6619739561837718 0.6617534440091577 0.6600351637939144 N
atom_frac 0.3380305601811315 0.3382503286296625 0.3399648970715887 N
atom_frac 0.5856067279969964 0.1401490375266405 0.2928214399509201 O
atom_frac 0.4143951388818436 0.8598568011904606 0.7071860766760666 O
atom_frac 0.4994835505023332 0.1471374858311236 0.4491832565887037 O
atom_frac 0.5005074706333659 0.8528572575289883 0.5508128063551183 O
atom_frac 0.2913160120323610 0.0168187645055298 0.2340157378693278 O
atom_frac 0.7086794603036496 0.9831950311025469 0.7659835931860856 O
atom_frac 0.1540694612677029 0.0722454328703321 0.1300359102848319 O
atom_frac 0.8459229963065554 0.9277673921484679 0.8699668386050234 O
atom_frac 0.3187254214187333 0.4251180492928909 0.6536954820033783 O
atom_frac 0.6812775339105173 0.5748736494201128 0.3462975687102415 O
