#=======================================================
# FHI-aims file: geometry_CoH8C12N2O4.in
# Created using the Atomic Simulation Environment (ASE)
# Tue Dec 21 18:30:52 2021
#=======================================================
lattice_vector -5.1010270190000000 -0.0952987730000000 -1.7286494180000000 
lattice_vector -5.0721734500000002 -0.2102872530000000 6.4581785539999998 
lattice_vector -2.4631332360000000 7.6868935530000000 -0.6960140929999999 
atom_frac 0.4620073931365027 0.5000363915702336 0.5000121297850058 Co
atom_frac 0.2821027787933447 0.4944496886649644 0.8721052879467309 H
atom_frac 0.6415864096088910 0.5054715875281204 0.1278821701435433 H
atom_frac 0.6425007411393864 0.1285001095987965 0.5059496974329818 H
atom_frac 0.2805377205361311 0.8715433305022839 0.4940863727593623 H
atom_frac 0.0480695616518718 0.7113739267095767 0.1072024522605801 H
atom_frac 0.8707243493159921 0.2885473786782383 0.8926878914637230 H
atom_frac 0.8684032507576087 0.8932390790998279 0.2890497365630154 H
atom_frac 0.0495672689582633 0.1067733167358114 0.7109291587952314 H
atom_frac 0.9677266084073466 0.5703147422857453 0.4295809557025265 C
atom_frac 0.9562803953218689 0.4297676515691151 0.5705382775182600 C
atom_frac 0.2266019625377070 0.6321056175881948 0.8437984210652091 C
atom_frac 0.6956479472824313 0.3678199699959706 0.1561687095870425 C
atom_frac 0.6971690375915075 0.1565996833277054 0.3680641928467381 C
atom_frac 0.2245866569785240 0.8434321369484505 0.6319322397949989 C
atom_frac 0.0963169430209519 0.7554342201695546 0.9739470205813917 C
atom_frac 0.8233203818852530 0.2444701073969071 0.0259611204615666 C
atom_frac 0.8242617582745027 0.0263447984303298 0.2447505089689841 C
atom_frac 0.0949047237879627 0.9736530036016335 0.7551972821278243 C
atom_frac 0.0269397636200353 0.9324187556173127 0.9324342864595820 C
atom_frac 0.8914651492768186 0.0675009338458779 0.0674733059948949 C
atom_frac 0.2908778598597623 0.6740248428035256 0.6741629892561605 N
atom_frac 0.6323460310865698 0.3260038280229907 0.3258645684457023 N
atom_frac 0.7659720975099944 0.6327165138786128 0.3688991397011776 O
atom_frac 0.7395324010953814 0.3847882718511001 0.6175436886646751 O
atom_frac 0.1844571437633604 0.6152751638346670 0.3824708958492380 O
atom_frac 0.1578985356528550 0.3673874686216365 0.6312985089243739 O
