#=======================================================
# FHI-aims file: geometry_Co2H32C46N8O10.in
# Created using the Atomic Simulation Environment (ASE)
# Tue Dec 21 18:30:52 2021
#=======================================================
lattice_vector 9.1891165449999992 -0.0974703750000000 -2.1341287410000001 
lattice_vector -3.7998586990000001 9.3406731579999995 -3.1452082820000000 
lattice_vector -0.1478372440000000 -0.1785761860000000 12.1989646119999993 
atom_frac 0.5837891646450190 0.3320122736002133 0.1362778760724552 Co
atom_frac 0.4162016226781019 0.6679815134068929 0.8637191079998559 Co
atom_frac 0.0996684377211707 0.5057203965653230 0.1345320122947555 H
atom_frac 0.9003412423236412 0.4942974318903379 0.8654802136336670 H
atom_frac 0.2761653313054424 0.4702027878552854 0.0163102426900181 H
atom_frac 0.7238390831547220 0.5298105381271440 0.9836933432714120 H
atom_frac 0.3259336411048893 0.2835769740308365 0.2554145452132914 H
atom_frac 0.6740628767863723 0.7164201042526412 0.7445834702186647 H
atom_frac 0.1870491920022772 0.0203194254535362 0.2699988061785846 H
atom_frac 0.8129473458267070 0.9796776688556007 0.7300000366148751 H
atom_frac 0.5649551968810087 0.0154397027485160 0.1402248681264809 H
atom_frac 0.4350431428662916 0.9845563878722036 0.8597764903490487 H
atom_frac 0.4335425236273167 0.8026907927355109 0.1787180599877302 H
atom_frac 0.5664572157727791 0.1973085764361925 0.8212860281264226 H
atom_frac 0.2312301645712864 0.7568105162684232 0.1042220945881951 H
atom_frac 0.7687728678751995 0.2431888985050534 0.8957825813801109 H
atom_frac 0.0450410361721579 0.7599599441262297 0.2108191770261952 H
atom_frac 0.9549628629171139 0.2400416029290468 0.7891845608295185 H
atom_frac 0.9643721206476457 0.7192572025491657 0.3792148036472298 H
atom_frac 0.0356338829368212 0.2807389784500316 0.6207870991264882 H
atom_frac 0.1643256358490176 0.7314973454581021 0.5631251331598078 H
atom_frac 0.8356765704363414 0.2684923433668159 0.4368752511927881 H
atom_frac 0.4426422612557205 0.7852817199391353 0.5730068381464761 H
atom_frac 0.5573610028363235 0.2147079520350630 0.4269920874345062 H
atom_frac 0.6136273258934819 0.8967261330926771 0.3557318437232269 H
atom_frac 0.3863758379037210 0.1032710844713023 0.6442698295015391 H
atom_frac 0.6544102602065182 0.9169793013874566 0.5103610704579041 H
atom_frac 0.3455926016200124 0.0830146528261366 0.4896380690796249 H
atom_frac 0.7618948508352048 0.7438956504613471 0.5644871248161749 H
atom_frac 0.2381069737285841 0.2560907109105628 0.4355074164031763 H
atom_frac 0.4948041365961444 0.6147166737496120 0.1887641923455661 H
atom_frac 0.5051964412956808 0.3852825022891793 0.8112293360204390 H
atom_frac 0.7693544980201423 0.4847617739326608 0.4248719835873588 H
atom_frac 0.2306411250772697 0.5152308466542975 0.5751173483216405 H
atom_frac 0.3128830373631928 0.2293081645671649 0.9045763285582566 C
atom_frac 0.6871134916462366 0.7706942460709667 0.0954206044124603 C
atom_frac 0.8860429375943326 0.3111092927021914 0.1713402152866479 C
atom_frac 0.1139625546102323 0.6889040324551772 0.8286627392646720 C
atom_frac 0.9964033692337395 0.2815611699857924 0.1043311159692948 C
atom_frac 0.0036067241947393 0.7184577085851203 0.8956798135413350 C
atom_frac 0.1002705906888720 0.3986329283523132 0.0932738124413035 C
atom_frac 0.8997434202712782 0.6013849128287488 0.9067367152081546 C
atom_frac 0.2010401460211213 0.3791330790078433 0.0287424437193025 C
atom_frac 0.7989637753044789 0.6208791327567269 0.9712591292139194 C
atom_frac 0.2055307011554035 0.2427439324162037 0.9774460031964481 C
atom_frac 0.7944669765297617 0.7572638578284695 0.0225516979874101 C
atom_frac 0.1052746010324981 0.1250919010533025 0.9906774893892702 C
atom_frac 0.8947187457373290 0.8749158764659696 0.0093219100735523 C
atom_frac 0.9968179000774527 0.1433559736426702 0.0503487095183033 C
atom_frac 0.0031848121530230 0.8566584361564437 0.9496564975685688 C
atom_frac 0.1212639098737469 0.9842346384724509 0.9489195271765426 C
atom_frac 0.8787345429789327 0.0157775133148164 0.0510818933612640 C
atom_frac 0.3550973419239584 0.1890471386214614 0.2338277189956983 C
atom_frac 0.6448991759673104 0.8109499396620234 0.7661702964362574 C
atom_frac 0.2860253224188228 0.0602544214534717 0.2422375718430700 C
atom_frac 0.7139696445311968 0.9397415594628594 0.7577598893322985 C
atom_frac 0.4821193961655014 0.0542703340854871 0.1733103120983941 C
atom_frac 0.5178782592833431 0.9457267914498930 0.8266895540079561 C
atom_frac 0.3317671808540936 0.8267565608808169 0.1914888298113127 C
atom_frac 0.6682336163526799 0.1732427914401669 0.8085137995312196 C
atom_frac 0.2917430908973840 0.8016603352134410 0.2975249257929776 C
atom_frac 0.7082574043387242 0.1983357537571564 0.7024751698623107 C
atom_frac 0.1338175932641050 0.7682263719227507 0.2916301532475175 C
atom_frac 0.8661855705330980 0.2317708456412291 0.7083715199772486 C
atom_frac 0.0874225991364667 0.7442093838571536 0.3861405249463559 C
atom_frac 0.9125822868281475 0.2557867659157935 0.6138603545144719 C
atom_frac 0.1989882503177256 0.7506337517698825 0.4884698190761300 C
atom_frac 0.8010130494494022 0.2493537727219177 0.5115298486660579 C
atom_frac 0.3554599231045684 0.7820400863497099 0.4942654058265746 C
atom_frac 0.6445390904292411 0.2179420112836539 0.5057316430280777 C
atom_frac 0.4047268373272389 0.8094350728386245 0.4010029724830417 C
atom_frac 0.5952735869775340 0.1905556357003633 0.5989957235489883 C
atom_frac 0.5772147610481185 0.8438652414320416 0.4148821411079098 C
atom_frac 0.4227874962308534 0.1561298117988272 0.5851188155064406 C
atom_frac 0.7052356992547929 0.6765441222475911 0.4667360003479005 C
atom_frac 0.2947602745082989 0.3234464774120695 0.5332594297940858 C
atom_frac 0.5631935537515389 0.6101186051235743 0.2712220048896086 C
atom_frac 0.4367997625686187 0.3898761982973440 0.7287707652216540 C
atom_frac 0.7077579841359167 0.5482213814158498 0.3970367354005475 C
atom_frac 0.2922339724068833 0.4517701755054018 0.6029549597950989 C
atom_frac 0.4762972107850203 0.1836406685911811 0.1896814846305260 N
atom_frac 0.5236988937225746 0.8163553595770521 0.8103178272192295 N
atom_frac 0.3686380794582290 0.9772599288607821 0.2048105902250724 N
atom_frac 0.6313600292497271 0.0227382788411603 0.7951896341864784 N
atom_frac 0.6183142121998982 0.5079922868110243 0.2745752435087638 N
atom_frac 0.3816815815174621 0.4920057943358102 0.7254196248310052 N
atom_frac 0.6130300019032829 0.7137686245888303 0.3859258621846067 N
atom_frac 0.3869637565578261 0.2862219286440039 0.6140683486931096 N
atom_frac 0.4654699883704724 0.2950863356890848 0.9676289129945631 O
atom_frac 0.5345253720254989 0.7049106793168461 0.0323664244015021 O
atom_frac 0.2542399612335515 0.1700870350058565 0.7902875585077994 O
atom_frac 0.7457524590803144 0.8299185621546525 0.2097102969831184 O
atom_frac 0.7698854616030321 0.3269472248012023 0.1018956812846242 O
atom_frac 0.2301094050521542 0.6730563017049248 0.8981045275345423 O
atom_frac 0.9143877826496053 0.3261997507729076 0.2799899428947583 O
atom_frac 0.0856107904356377 0.6738048714502367 0.7200095573607542 O
atom_frac 0.2367548121154925 0.9753202242534725 0.9207322796051969 O
atom_frac 0.7632423607107270 0.0246887451367499 0.0792713754630014 O
