#=======================================================
# FHI-aims file: geometry_Co4H12C32Cl4O16.in
# Created using the Atomic Simulation Environment (ASE)
# Tue Dec 21 18:30:52 2021
#=======================================================
lattice_vector 4.8249443689999998 -0.0000107040000000 0.0000241970000000 
lattice_vector -0.0000416050000000 12.6198223029999994 -2.6058640880000001 
lattice_vector 0.0000697630000000 -0.2224149300000000 13.8162579020000003 
atom_frac 0.2183456823883461 0.3932463249467090 0.4384885716217822 Co
atom_frac 0.7183617061678261 0.1067579034997408 0.5615094376255740 Co
atom_frac 0.7816372133798311 0.6067587382944312 0.5615139749094382 Co
atom_frac 0.2816543506085196 0.8932407481978401 0.4384890044358301 Co
atom_frac 0.4219235247671804 0.2263042610679875 0.0269543273031232 H
atom_frac 0.9218994384830169 0.2736859903875057 0.9730403327656988 H
atom_frac 0.5780780240490840 0.7736944162151216 0.9730455671793053 H
atom_frac 0.0780896749654616 0.7263070703616423 0.0269556072723631 H
atom_frac 0.1794859408821878 0.0593426930843322 0.0399807714715834 H
atom_frac 0.6794547477976208 0.4406456218446947 0.9600172676867088 H
atom_frac 0.8205218256337544 0.9406543685124760 0.9600173706977697 H
atom_frac 0.3205343655771102 0.5593491313881314 0.0399847818480835 H
atom_frac 0.2021676309833538 0.9963816423786512 0.1989844332283965 H
atom_frac 0.7021459342249939 0.5036129050657719 0.8010157216403044 H
atom_frac 0.7978422080906569 0.0036146241728687 0.8010135589850121 H
atom_frac 0.2978431791872396 0.4963882085429602 0.1989875275156336 H
atom_frac 0.7413137361458128 0.2906542901177218 0.3519887710237697 C
atom_frac 0.2413195705022630 0.2093476036479913 0.6480094412358568 C
atom_frac 0.2586774498754210 0.7093475673448426 0.6480117232857836 C
atom_frac 0.7586902685941651 0.7906542410311559 0.3519903268449839 C
atom_frac 0.5883343693506119 0.2216823280601474 0.2669123439839396 C
atom_frac 0.0883327152576996 0.2783161346102432 0.7330857569935034 C
atom_frac 0.4116568166659392 0.7783187343554305 0.7330880003729732 C
atom_frac 0.9116771238584959 0.7216872873641691 0.2669135847936985 C
atom_frac 0.5741451192496213 0.2552420438758602 0.1771602846918512 C
atom_frac 0.0741382184275565 0.2447555748740484 0.8228362592546787 C
atom_frac 0.4258564295713328 0.7447574284542355 0.8228397597432248 C
atom_frac 0.9258674755594568 0.7552454491572862 0.1771619064822759 C
atom_frac 0.4283907555225355 0.1979582068871721 0.0956446981414416 C
atom_frac 0.9283795072583986 0.3020360688168182 0.9043528696147760 C
atom_frac 0.5716066481786085 0.8020404575938258 0.9043544701486824 C
atom_frac 0.0716199689904258 0.6979618134176062 0.0956468749183230 C
atom_frac 0.2934079687801087 0.1044770278867873 0.1034929896026000 C
atom_frac 0.7933902693379268 0.3955154619302945 0.8965061617035630 C
atom_frac 0.7065956526046192 0.8955208415523190 0.8965060287249500 C
atom_frac 0.2066071343263474 0.6044840487925428 0.1034960613349227 C
atom_frac 0.3067018804928736 0.0689461556129487 0.1914662355332197 C
atom_frac 0.8066852652509126 0.4310471254579086 0.8085315708739030 C
atom_frac 0.6933058860324407 0.9310524960778322 0.8085322065414218 C
atom_frac 0.1933142109968955 0.5689523596691970 0.1914691997634108 C
atom_frac 0.4547878781696752 0.1262337536972851 0.2729253483611558 C
atom_frac 0.9547767756998908 0.3737637710860823 0.7270741873080481 C
atom_frac 0.5452136706512789 0.8737657186328108 0.7270746960739203 C
atom_frac 0.0452268456703848 0.6262405227224903 0.2729296616353026 C
atom_frac 0.4711842988006794 0.0828618730387234 0.3643508548896506 C
atom_frac 0.9711765881185314 0.4171364864848713 0.6356495045662243 C
atom_frac 0.5288172500119189 0.9171344063047114 0.6356478635359222 C
atom_frac 0.0288228881392811 0.5828717953539595 0.3643558203458852 C
atom_frac 0.7423699829671406 0.3712570129845433 0.1659492295736769 Cl
atom_frac 0.2423690474537423 0.1287416639238756 0.8340462009164327 Cl
atom_frac 0.2576232756235726 0.6287424337413298 0.8340493624767759 Cl
atom_frac 0.7576283562936509 0.8712577444092560 0.1659502125306105 Cl
atom_frac 0.0037984733994421 0.2835778866709120 0.3494032445946331 O
atom_frac 0.5038117398060321 0.2164259642972937 0.6505939973832754 O
atom_frac 0.9961844223791302 0.7164271637715202 0.6505985757376607 O
atom_frac 0.4962043170353069 0.7835766114403742 0.3494022896456316 O
atom_frac 0.6129947914986218 0.3584197762521412 0.4177656809586594 O
atom_frac 0.1130075769902845 0.1415802913721578 0.5822311887538306 O
atom_frac 0.3869881042508111 0.6415821068010459 0.5822362657619918 O
atom_frac 0.8870043346096138 0.8584168214228995 0.4177698582046289 O
atom_frac 0.6514780190079746 0.1235983858082506 0.4292099114797523 O
atom_frac 0.1514661692496730 0.3764025399591162 0.5707869853343581 O
atom_frac 0.3485338926636387 0.8764002402885039 0.5707870781904134 O
atom_frac 0.8485312344635005 0.6236017154482170 0.4292146850221314 O
atom_frac 0.3072106876480021 0.0071435644259807 0.3701065629124328 O
atom_frac 0.8072044492225174 0.4928585269983118 0.6298965223270513 O
atom_frac 0.6927991514494422 0.9928566773604788 0.6298921790641856 O
atom_frac 0.1928053898329836 0.5071505754934265 0.3701104049190178 O
