#=======================================================
# FHI-aims file: geometry_Co2H22C36N6O12.in
# Created using the Atomic Simulation Environment (ASE)
# Tue Dec 21 18:30:52 2021
#=======================================================
lattice_vector 10.0379585930000008 0.0124592210000000 -0.8796947610000000 
lattice_vector -1.8878911789999999 8.3277122529999996 -4.0555045060000001 
lattice_vector -0.4777687800000000 0.5678048330000000 10.8785995090000007 
atom_frac 0.3918636695448184 0.6675246104683480 0.1134805525034535 Co
atom_frac 0.6081380768483839 0.3324764324830339 0.8865282284050549 Co
atom_frac 0.2624530211673886 0.4397360270858712 0.4417802110511386 H
atom_frac 0.7375489584651619 0.5602678453373569 0.5582222896477942 H
atom_frac 0.1991644068492420 0.5271878084644257 0.8592040188891872 H
atom_frac 0.8008359108271250 0.4728170629971656 0.1408014775621424 H
atom_frac 0.9341173823259582 0.6455628672599046 0.0513201431864586 H
atom_frac 0.0658676169327137 0.3544523232603466 0.9486576266680159 H
atom_frac 0.5390414308072237 0.8730308911265325 0.3776894840263905 H
atom_frac 0.4609664656836756 0.1269605580635798 0.6223189753946626 H
atom_frac 0.2662863014628202 0.4407102490180321 0.2140949359454822 H
atom_frac 0.7337226990611327 0.5592981373428854 0.7859116537481794 H
atom_frac 0.5441305538508560 0.8958761474525047 0.6115160820867157 H
atom_frac 0.4558773967630431 0.1041168391452558 0.3884874394354227 H
atom_frac 0.5794151727069661 0.8672584651718223 0.7921947212153027 H
atom_frac 0.4205997997550243 0.1327344123028809 0.2078102466817952 H
atom_frac 0.7395746855164590 0.9762167544928319 0.3149202634090144 H
atom_frac 0.2604184028171942 0.0237731261812399 0.6850763022216525 H
atom_frac 0.5632399444376547 0.8668943454035798 0.0149801591816184 H
atom_frac 0.4367651561595594 0.1331092611959690 0.9850261717389512 H
atom_frac 0.1809555584563256 0.0759284447267490 0.3669133883611124 H
atom_frac 0.8190425147891887 0.9240630618929939 0.6330768326321629 H
atom_frac 0.1966982552914018 0.5140043167081885 0.6296868674615722 H
atom_frac 0.8033169275352636 0.4859897914948447 0.3703176570219212 H
atom_frac 0.2018099870710515 0.8108670000583373 0.1713415370521857 C
atom_frac 0.7981812592333882 0.1891272106506463 0.8286620092612933 C
atom_frac 0.3927427316808760 0.6826658566914147 0.6861194012344853 C
atom_frac 0.6072740902273138 0.3173256537297461 0.3138879642925899 C
atom_frac 0.3996058756311243 0.6708576246320703 0.5490125185595998 C
atom_frac 0.6004026207054950 0.3291375780788997 0.4509937117235764 C
atom_frac 0.3236937400036198 0.5405170565133304 0.4334878806419836 C
atom_frac 0.6763032850087215 0.4594897516891193 0.5665245062111736 C
atom_frac 0.6831367340763137 0.6945930477568679 0.0991319737559663 C
atom_frac 0.3168539072659868 0.3054178575951595 0.9008556856796303 C
atom_frac 0.2828069906203153 0.5977549623044282 0.8389592579064666 C
atom_frac 0.7172030178911015 0.4022471340896202 0.1610515030715830 C
atom_frac 0.9419368381169522 0.7574815261019124 0.1348984897172084 C
atom_frac 0.0580501136632989 0.2425258302170760 0.8650884675316917 C
atom_frac 0.0711713892148964 0.8562201575065059 0.2043979837001543 C
atom_frac 0.9288174120115613 0.1437858317589402 0.7955913711787230 C
atom_frac 0.4786073260974748 0.7806034664057223 0.3971714584379384 C
atom_frac 0.5214084961969264 0.2193926739029236 0.6028384714977761 C
atom_frac 0.8218264796889657 0.8005997287617459 0.1731695568506380 C
atom_frac 0.1781638794616144 0.1994163516738041 0.8268126551311781 C
atom_frac 0.3251680510255355 0.5384944492113988 0.3058477604044468 C
atom_frac 0.6748338100739703 0.4615172545974032 0.6941631656388123 C
atom_frac 0.4809227340582751 0.7914486505750985 0.5275429777081085 C
atom_frac 0.5190862777094055 0.2085442065241949 0.4724624198192869 C
atom_frac 0.4935094014411304 0.7869695670936776 0.7999142034033040 C
atom_frac 0.5064928906747924 0.2130336919709137 0.2000972862662422 C
atom_frac 0.8313055191370893 0.9420800858361816 0.2823870058416345 C
atom_frac 0.1686851814446300 0.0579119087595998 0.7176138317108068 C
atom_frac 0.4859121721415747 0.7876147192505056 0.9259821934539968 C
atom_frac 0.5140876062723764 0.2123955221399996 0.0740326151688464 C
atom_frac 0.0810765833106827 0.9991053162516292 0.3119527246864490 C
atom_frac 0.9189169164219707 0.0008933090192329 0.6880388610437504 C
atom_frac 0.9606427950547881 0.0385548307708774 0.3495525063474858 C
atom_frac 0.0393505899715690 0.9614331336425646 0.6504369342479632 C
atom_frac 0.2830624258573097 0.5915215234674845 0.7101775123249465 C
atom_frac 0.7169537649568269 0.4084662947686724 0.2898311834429349 C
atom_frac 0.3856607716661317 0.6896967401373287 0.9461155352987587 N
atom_frac 0.6143434230623086 0.3103113123421223 0.0538960567216265 N
atom_frac 0.4002614308399971 0.6577695065994290 0.2871900081512280 N
atom_frac 0.5997486005460786 0.3422341885381357 0.7128149160308508 N
atom_frac 0.9706232731175605 0.1853429319273801 0.4658716684679973 N
atom_frac 0.0293672003521194 0.8146511520988253 0.5341161411119939 N
atom_frac 0.3138457569004203 0.9124573743236011 0.2155446074901234 O
atom_frac 0.6861497340191464 0.0875363183914999 0.7844664428443551 O
atom_frac 0.6732556395121990 0.5855175034922341 0.9859558046762942 O
atom_frac 0.3267255181024781 0.4144786195711491 0.0140375271416956 O
atom_frac 0.5857421994863686 0.7311288950189904 0.1620117434181622 O
atom_frac 0.4142537788731745 0.2688813015048197 0.8379861949407399 O
atom_frac 0.8634935832685641 0.2161561880859679 0.5025934792081941 O
atom_frac 0.1365036881402304 0.7838286742052036 0.4974061500295760 O
atom_frac 0.0874036399650464 0.2708809643836361 0.5227012439526532 O
atom_frac 0.9125893015114742 0.7291329299565491 0.4772601386879528 O
atom_frac 0.1961017249500402 0.6647394268011484 0.1015455527943274 O
atom_frac 0.8038883039589350 0.3352552200856351 0.8984516230285990 O
