#=======================================================
# FHI-aims file: geometry_Co2H36C52N12O10.in
# Created using the Atomic Simulation Environment (ASE)
# Tue Dec 21 18:30:52 2021
#=======================================================
lattice_vector 9.8845749190000003 0.0625259660000000 0.7726686510000000 
lattice_vector 3.8659311189999999 10.7872355930000001 5.5672038109999997 
lattice_vector 0.2498536860000000 0.2075691170000000 12.2821381869999993 
atom_frac 0.8865822514471159 0.8754439938061865 0.5983307171154665 Co
atom_frac 0.1134141804677355 0.1245608418583970 0.4016566781425582 Co
atom_frac 0.2336532378895839 0.6314128348909023 0.8181930030550860 H
atom_frac 0.7663423011171986 0.3685908168528229 0.1818080120668526 H
atom_frac 0.4231151833184155 0.9198656578314658 0.6317257181174583 H
atom_frac 0.5768763295431257 0.0801409128997577 0.3682693420379409 H
atom_frac 0.6963215053105145 0.5369741940808409 0.8395019877766432 H
atom_frac 0.3036717549033696 0.4630377899809658 0.1605002790034932 H
atom_frac 0.7983494449962123 0.1207009633534355 0.0262693305695834 H
atom_frac 0.2016610858180668 0.8793065494041347 0.9737192210262009 H
atom_frac 0.7745723515325552 0.9114043907931304 0.1695590943975915 H
atom_frac 0.2254462803530259 0.0886001999304327 0.8304343430017981 H
atom_frac 0.3297954565276981 0.0633113426336891 0.1362189723023874 H
atom_frac 0.6702178997304531 0.9366829223172314 0.8637827341777753 H
atom_frac 0.3333910370947706 0.2760007229545566 0.0000461581226716 H
atom_frac 0.6666165166981414 0.7239954233910453 0.9999558747888670 H
atom_frac 0.0153680702803598 0.6043662397538796 0.3700361835597121 H
atom_frac 0.9846337297771227 0.3956261134735541 0.6299720016025036 H
atom_frac 0.8108714435482227 0.8012089667111367 0.4025627596285233 H
atom_frac 0.1891255642758907 0.1987909849387037 0.5974373976841321 H
atom_frac 0.1675750735797337 0.6463646828577438 0.6531033885243860 H
atom_frac 0.8324186302488314 0.3536248706801146 0.3469082033854249 H
atom_frac 0.2449873728300530 0.4250937963198568 0.7403557911311935 H
atom_frac 0.7550260422353079 0.5749049387902971 0.2596544699078223 H
atom_frac 0.4716810618026841 0.2420089005958417 0.7923175760130832 H
atom_frac 0.5283384924888708 0.7579927222801573 0.2076852905179648 H
atom_frac 0.7588826636094553 0.2140122831833438 0.7494814841967569 H
atom_frac 0.2411243191165722 0.7859830254534187 0.2505160792113586 H
atom_frac 0.9650554664426567 0.9982743765438683 0.7541492238614325 H
atom_frac 0.0349509452164867 0.0017200943840550 0.2458438700432596 H
atom_frac 0.5946816046405844 0.0884869931637766 0.5425995815823299 H
atom_frac 0.4053164914034752 0.9115130324747583 0.4573964027807235 H
atom_frac 0.5214011890770250 0.3485792975358635 0.4087885656784849 H
atom_frac 0.4785810853708056 0.6514142076342679 0.5912138121664514 H
atom_frac 0.2947851291298420 0.5293491106603412 0.3547960720988357 H
atom_frac 0.7051987948180525 0.4706395687468330 0.6452157170951054 H
atom_frac 0.3947786412531825 0.4268320154873494 0.9620341276609139 H
atom_frac 0.6052309527145781 0.5731656756848054 0.0379833604794939 H
atom_frac 0.4667734312236008 0.5688776235411978 0.8358545533764429 C
atom_frac 0.5332220492666053 0.4311259652548927 0.1641497507213786 C
atom_frac 0.3294923387209607 0.6588885810265593 0.7943465894347882 C
atom_frac 0.6705057576137250 0.3411158518235737 0.2056612384630015 C
atom_frac 0.3137820880736156 0.7853284038490074 0.7192686647880181 C
atom_frac 0.6862189849407940 0.2146743977476576 0.2807266882080626 C
atom_frac 0.4358592977560036 0.8216494220508039 0.6904282675801100 C
atom_frac 0.5641400184609396 0.1783552264202086 0.3095679871723576 C
atom_frac 0.5724127937516954 0.7322881879969501 0.7346185859901695 C
atom_frac 0.4275826770027464 0.2677182537924807 0.2653819829540396 C
atom_frac 0.5890511539790567 0.6055781270870710 0.8074181898559020 C
atom_frac 0.4109433163303038 0.3944283351351245 0.1925816185740744 C
atom_frac 0.1710644609702498 0.8802786996236379 0.6556385215519355 C
atom_frac 0.8289346842997175 0.1197242215231071 0.3443511991958488 C
atom_frac 0.7029415657711836 0.7711104274646559 0.7031780661206072 C
atom_frac 0.2970478633187100 0.2288989584408866 0.2968158490725728 C
atom_frac 0.5875911210067883 0.3386816316900010 0.9154625130690094 C
atom_frac 0.4124024366323552 0.6613249453864185 0.0845316013829276 C
atom_frac 0.5688628331218126 0.2156963737693260 0.0012222503795059 C
atom_frac 0.4311423148186578 0.7843064247808159 0.9987720334536334 C
atom_frac 0.6932227864018401 0.1103221760720174 0.0497871328601178 C
atom_frac 0.3067860266090250 0.8896843620403773 0.9502044111577206 C
atom_frac 0.6789483434888267 0.9946861530008347 0.1284595022121311 C
atom_frac 0.3210641833222355 0.0053184501609564 0.8715351278096933 C
atom_frac 0.4326827224206796 0.0786865494383449 0.1109786867641134 C
atom_frac 0.5673283794094672 0.9213132105742260 0.8890271842838829 C
atom_frac 0.4355720305034509 0.1990697311456984 0.0334026025959133 C
atom_frac 0.5644351280629465 0.8009301735455733 0.9665969374192970 C
atom_frac 0.0153208310350124 0.6431037807659763 0.4321936599460870 C
atom_frac 0.9846759326453806 0.3568857744212153 0.5678169245305257 C
atom_frac 0.9154234672431089 0.7390647226872956 0.4495224658516648 C
atom_frac 0.0845719885405457 0.2609287056997972 0.5504799317505658 C
atom_frac 0.0956788120066178 0.6603704441224281 0.5834973535628265 C
atom_frac 0.9043128080502927 0.3396219245897427 0.4165130933847720 C
atom_frac 0.2565980976397880 0.4885286396353267 0.5447940812756330 C
atom_frac 0.7433982415557950 0.5114646424237178 0.4552156547925892 C
atom_frac 0.3073970468241071 0.4091828592596657 0.6678633182718131 C
atom_frac 0.6926080181838614 0.5908141231454351 0.3321441915763543 C
atom_frac 0.4343457135907445 0.3081895976955452 0.6973981443782478 C
atom_frac 0.5656613572007815 0.6918102125742749 0.3026063291007831 C
atom_frac 0.5105989659744878 0.2869158957620641 0.6036299872674179 C
atom_frac 0.4894004379663102 0.7130802566765694 0.3963741839700178 C
atom_frac 0.7574795821791935 0.1548577602198975 0.7084421643641932 C
atom_frac 0.2425192117006744 0.8451403760294199 0.2915554467041376 C
atom_frac 0.8571601663409186 0.0477768400646070 0.7108726242584140 C
atom_frac 0.1428430586974799 0.9522203563120327 0.2891243198776224 C
atom_frac 0.6704040003835204 0.0928858173899059 0.5966742481854297 C
atom_frac 0.3295940810313950 0.9071141925117203 0.4033225584215999 C
atom_frac 0.4596910314533532 0.3652588131526571 0.4810181097391110 C
atom_frac 0.5402996613041965 0.6347336546768291 0.5189874654744031 C
atom_frac 0.3319713554717296 0.4665054492380988 0.4509292389828731 C
atom_frac 0.6680180439672084 0.5334823170743663 0.5490801770610858 C
atom_frac 0.5514994080964042 0.9776046527584654 0.1585749417712990 N
atom_frac 0.4485151732280174 0.0223971037551820 0.8414224777006823 N
atom_frac 0.4770198273545320 0.4423126210903662 0.9076177986263901 N
atom_frac 0.5229803283869073 0.5576918338418649 0.0923882613239756 N
atom_frac 0.9679792749359419 0.7492036540362931 0.5433844840255377 N
atom_frac 0.0320147412886769 0.2507935059185087 0.4566171268980527 N
atom_frac 0.1290971980154295 0.5931956911540226 0.5186050859159013 N
atom_frac 0.8708968327873096 0.4067928940838571 0.4814085527125088 N
atom_frac 0.6404345181072414 0.1832273226553197 0.6343425189695966 N
atom_frac 0.3595649492435270 0.8167717614612046 0.3656538058943682 N
atom_frac 0.8018033652889470 0.0099380636246877 0.6409539063826842 N
atom_frac 0.1981937303100309 0.9900619824466120 0.3590413174661435 N
atom_frac 0.0743082852014182 0.8314107432777577 0.6632982901670915 O
atom_frac 0.9256922362176214 0.1685855146233948 0.3367000636328044 O
atom_frac 0.1599726788965867 0.9940765132534893 0.5977768252730443 O
atom_frac 0.8400259099356331 0.0059255859213252 0.4022076037273479 O
atom_frac 0.6977756992231221 0.8618904504728350 0.5942866527075524 O
atom_frac 0.3022169018583725 0.1381161942470825 0.4057042344982449 O
atom_frac 0.8098621371235452 0.7174852819061144 0.7792094481869897 O
atom_frac 0.1901302981949868 0.2825269114313755 0.2207821911512796 O
atom_frac 0.6965088450703831 0.3428788927366426 0.8567012202364026 O
atom_frac 0.3034763186749529 0.6571344748778287 0.1432797598078111 O
