#=======================================================
# FHI-aims file: ./geometry.in
# Created using the Atomic Simulation Environment (ASE)
# Tue Feb  8 17:14:44 2022
#=======================================================
lattice_vector 5.0000102505940376 0.0000000000000000 0.0000000000000000 
lattice_vector 0.0000000000000000 5.0000102505940376 0.0000000000000000 
lattice_vector 0.0000000000000000 0.0000000000000000 5.0000102505940376 
atom_frac 0.4549980155895286 0.8378083641578428 0.9653116582792252 Fe
    initial_moment         2.000000
atom_frac 0.9757405555290969 0.5226901197525573 0.1849608145078925 Fe
atom_frac 0.6200574685272501 0.9307506363342912 0.3136188767707556 H
atom_frac 0.2672020870706397 0.9336852354569171 0.8021101427188014 H
atom_frac 0.8106822667788521 0.4297478475761088 0.8366540193572627 H
atom_frac 0.1635340498378074 0.4268133542887079 0.3481618008921909 H
atom_frac 0.2476553793399056 0.9962957671201706 0.1125719547236907 H
atom_frac 0.1830829801082693 0.3642026109550041 0.0377005180634269 H
atom_frac 0.5832631116614545 0.1208698597154093 0.4152232329486222 C
atom_frac 0.3022688955565081 0.1240280886687515 0.7003214215787440 C
atom_frac 0.8474754594571712 0.2396286241949908 0.7350493456737207 C
atom_frac 0.1284696755621171 0.2364702894064231 0.4499509453731484 C
atom_frac 0.1739151095659169 0.9960772173802606 0.3178931381731782 C
atom_frac 0.2568235673879336 0.3644211606949142 0.8323793346139398 C
atom_frac 0.9860606541675266 0.9954655956141885 0.8097991776603007 C
atom_frac 0.4446781286215489 0.3650327824609865 0.3404735067972673 C
atom_frac 0.4931951125293031 0.1177793653061548 0.6695757595000345 N
atom_frac 0.3923901298069035 0.1215116445206459 0.4459861461690296 N
atom_frac 0.9375434585893223 0.2427191186042451 0.4806968191223087 N
atom_frac 0.0383486529821720 0.2389868393897541 0.7042863266180884 N
atom_frac 0.6710076042609262 0.5655127452069872 0.7806686669524218 N
atom_frac 0.3019864213406148 0.5636471876934800 0.4039577082440349 N
atom_frac 0.7597309668576994 0.7949855270329623 0.3696039116699211 N
atom_frac 0.1287522556132356 0.7968512962169199 0.7463147645430829 N
atom_frac 0.6716349954755442 0.4903207336497807 0.5500533938710821 N
atom_frac 0.3020705603445995 0.4885884226847222 0.6346165854381313 N
atom_frac 0.7591035756430814 0.8701775385901691 0.6002191847512609 N
atom_frac 0.1286681166092510 0.8719097437200024 0.5156558873489864 N
atom_frac 0.6734786450974478 0.4104897525043260 0.3325755531213454 N
atom_frac 0.3009589729749753 0.4088325845491155 0.8521262825906347 N
atom_frac 0.7572586559984761 0.9500084139003986 0.8176970255009975 N
atom_frac 0.1297794923084249 0.9516653701851588 0.2981460843612579 N
atom_frac 0.8000000000000000 0.2000000000000000 0.1000000000000000 Li
