#=======================================================
# FHI-aims file: ./geometry.in
# Created using the Atomic Simulation Environment (ASE)
# Mon Feb  7 19:01:13 2022
#=======================================================
lattice_vector 8.1428746400000005 0.0000254100000000 -0.0000282900000000 
lattice_vector -0.0000500100000000 10.5138621400000005 -4.0447550799999998 
lattice_vector 0.0000271900000000 -0.0490471900000000 15.3141104600000002 
atom_frac 0.4999999400000000 0.5000000400000000 1.0000000400000000 Ti
atom_frac 0.0000000300000000 0.5000000500000000 0.5000000500000000 Ti
atom_frac 0.7312931600000000 0.2060740400000000 0.7574173199999999 H
atom_frac 0.2312927500000000 0.7939270300000000 0.7425834299999999 H
atom_frac 0.2687070200000000 0.7939260900000001 0.2425828400000000 H
atom_frac 0.7687070700000000 0.2060731100000000 0.2574167200000000 H
atom_frac 0.8481969600000000 0.2032575099999999 0.6046207699999999 H
atom_frac 0.3481953700000000 0.7967435600000002 0.8953804900000000 H
atom_frac 0.1518032800000000 0.7967426399999999 0.3953794099999999 H
atom_frac 0.6518043500000000 0.2032565900000000 0.1046196900000000 H
atom_frac 0.7649623600000000 0.6061469900000001 0.6916749300000000 H
atom_frac 0.2649631500000000 0.3938535400000001 0.8083249999999998 H
atom_frac 0.2350374600000000 0.3938530900000001 0.3083251300000000 H
atom_frac 0.7350369200000000 0.6061465500000001 0.1916750700000000 H
atom_frac 0.6364438300000000 0.6060148600000002 0.8393266100000000 H
atom_frac 0.1364456700000000 0.3939856100000001 0.6606727999999999 H
atom_frac 0.3635559300000000 0.3939852100000000 0.1606734300000000 H
atom_frac 0.8635544700000001 0.6060144700000001 0.3393272500000000 H
atom_frac 0.8683849100000001 0.5150041700000000 0.9471129000000000 H
atom_frac 0.3683851900000000 0.4849959600000001 0.5528874000000000 H
atom_frac 0.1316149500000000 0.4849959300000000 0.0528871900000000 H
atom_frac 0.6316148600000000 0.5150041300000000 0.4471127100000000 H
atom_frac 0.0954370700000000 0.6725911000000001 0.9824698700000000 H
atom_frac 0.5954370600000001 0.3274091600000000 0.5175305800000000 H
atom_frac 0.9045627800000000 0.3274090100000001 0.0175302400000000 H
atom_frac 0.4045629900000000 0.6725909400000000 0.4824695600000000 H
atom_frac 0.2833044600000000 0.7950605799999999 0.0729857999999999 H
atom_frac 0.7833040700000001 0.2049399300000000 0.4270147700000000 H
atom_frac 0.7166954100000001 0.2049395500000000 0.9270143300000000 H
atom_frac 0.2166960700000000 0.7950601799999999 0.5729853399999999 H
atom_frac 0.4909140900000001 0.9664134200000000 0.1035499500000000 H
atom_frac 0.9909135100000001 0.0335872700000000 0.3964508200000000 H
atom_frac 0.5090857300000000 0.0335867300000000 0.8964502000000000 H
atom_frac 0.0090866000000000 0.9664128500000000 0.6035492500000000 H
atom_frac 0.1051773800000000 0.2469096000000001 0.1618785700000000 H
atom_frac 0.6051764700000000 0.7530907100000002 0.3381214399999999 H
atom_frac 0.8948224000000000 0.7530905100000002 0.8381215699999999 H
atom_frac 0.3948237100000000 0.2469094000000000 0.6618787800000000 H
atom_frac 0.8984748800000000 0.0762165200000000 0.1261004500000000 H
atom_frac 0.3984741500000000 0.9237836100000000 0.3738994299999999 H
atom_frac 0.1015249200000000 0.9237835699999999 0.8738996699999999 H
atom_frac 0.6015259900000000 0.0762164800000000 0.6261007700000000 H
atom_frac 0.7658507800000001 0.9445844300000003 0.1746053400000000 H
atom_frac 0.2658499400000000 0.0554158000000000 0.3253945700000000 H
atom_frac 0.2341490300000000 0.0554156500000000 0.8253947699999999 H
atom_frac 0.7341501600000001 0.9445842700000002 0.6746055500000000 H
atom_frac 0.5519026700000002 0.7755716400000000 0.1286398000000000 H
atom_frac 0.0519021100000000 0.2244284600000000 0.3713600399999999 H
atom_frac 0.4480971500000000 0.2244284200000000 0.8713602699999999 H
atom_frac 0.9480979899999999 0.7755716200000000 0.6286400299999999 H
atom_frac 0.4039051900000001 0.1926816700000000 0.1504676300000000 H
atom_frac 0.9039042400000001 0.8073188300000003 0.3495328100000000 H
atom_frac 0.5960945900000000 0.8073184600000000 0.8495325299999998 H
atom_frac 0.0960959100000000 0.1926812900000000 0.6504673199999998 H
atom_frac 0.6740816600000000 0.4058352900000000 0.8073167300000000 C
atom_frac 0.1740824800000000 0.5941654800000000 0.6926833200000000 C
atom_frac 0.3259182900000000 0.5941648000000000 0.1926833700000000 C
atom_frac 0.8259175200000001 0.4058346300000000 0.3073167800000000 C
atom_frac 0.7367645600000000 0.2930838200000000 0.7412926299999999 C
atom_frac 0.2367643800000000 0.7069171400000001 0.7587079599999998 C
atom_frac 0.2632355300000000 0.7069163100000001 0.2587074999999999 C
atom_frac 0.7632354900000000 0.2930829900000000 0.2412921800000000 C
atom_frac 0.8039257800000000 0.2919903700000001 0.6576193800000000 C
atom_frac 0.3039249000000000 0.7080106000000000 0.8423814899999998 C
atom_frac 0.1960743600000000 0.7080097600000002 0.3423807600000000 C
atom_frac 0.6960749200000002 0.2919895400000001 0.1576186600000000 C
atom_frac 0.8166597799999999 0.4047256300000002 0.6386449100000000 C
atom_frac 0.3166592600000000 0.5952751700000001 0.8613557199999999 C
atom_frac 0.1833402600000000 0.5952744800000002 0.3613552100000000 C
atom_frac 0.6833406300000000 0.4047249500000000 0.1386444100000000 C
atom_frac 0.7559122200000000 0.5178582500000001 0.7055966900000000 C
atom_frac 0.2559127100000000 0.4821423900000001 0.7944034100000000 C
atom_frac 0.2440876800000000 0.4821418400000002 0.2944033900000000 C
atom_frac 0.7440873099999999 0.5178577200000000 0.2055966800000000 C
atom_frac 0.6850774500000001 0.5181584299999999 0.7877481999999999 C
atom_frac 0.1850785500000000 0.4818421800000000 0.7122516200000000 C
atom_frac 0.3149224000000000 0.4818416500000001 0.2122518700000000 C
atom_frac 0.8149215100000001 0.5181579200000000 0.2877484600000000 C
atom_frac 0.8509013400000000 0.6121228800000000 -0.0030330600000000 C
atom_frac 0.3509013700000000 0.3878772600000001 0.5030332900000000 C
atom_frac 0.1490985100000000 0.3878772100000001 1.0030331500000000 C
atom_frac 0.6490986900000000 0.6121228300000001 0.4969668200000000 C
atom_frac 0.9770152600000001 0.7005211300000002 0.0175673900000000 C
atom_frac 0.4770151300000000 0.2994790800000000 0.4824329099999999 C
atom_frac 0.0229845900000000 0.2994789700000001 0.9824327200000000 C
atom_frac 0.5229849300000000 0.7005210100000001 0.5175672199999999 C
atom_frac 0.9497081700000000 0.8249685400000001 0.0801439200000000 C
atom_frac 0.4497077400000000 0.1750316900000000 0.4198562699999999 C
atom_frac 0.0502916700000000 0.1750315500000000 0.9198561900000000 C
atom_frac 0.5502923400000002 0.8249683999999999 0.5801438599999998 C
atom_frac 0.2437042300000000 0.8944692200000001 0.0926682400000000 C
atom_frac 0.7437037100000000 0.1055312500000000 0.4073322599999999 C
atom_frac 0.7562956000000000 0.1055308900000000 0.9073318900000000 C
atom_frac 0.2562963800000000 0.8944688700000000 0.5926678500000000 C
atom_frac 0.3600679900000000 0.9907517800000001 0.1103554800000000 C
atom_frac 0.8600673800000000 0.0092487800000000 0.3896451000000000 C
atom_frac 0.6399318200000002 0.0092483500000000 0.8896446600000000 C
atom_frac 0.1399327300000000 0.9907513400000001 0.6103549900000000 C
atom_frac 0.3115553600000000 0.1174939900000000 0.1360005000000000 C
atom_frac 0.8115546000000000 0.8825065200000000 0.3639999000000000 C
atom_frac 0.6884444300000000 0.8825061399999999 0.8639996399999998 C
atom_frac 0.1884455500000000 0.1174936000000000 0.6360002300000001 C
atom_frac 0.1450600700000000 0.1479860500000000 0.1429572100000000 C
atom_frac 0.6450592700000000 0.8520143100000002 0.3570429500000000 C
atom_frac 0.8549397100000000 0.8520140600000000 0.8570429299999999 C
atom_frac 0.3549408700000000 0.1479858000000000 0.6429572300000000 C
atom_frac 0.0286636100000000 0.0519056500000000 0.1244809100000000 C
atom_frac 0.5286629000000000 0.9480946100000002 0.3755191800000000 C
atom_frac 0.9713362000000001 0.9480944500000001 0.8755192199999999 C
atom_frac 0.4713372300000000 0.0519054900000000 0.6244810000000000 C
atom_frac 0.0758889300000000 0.9244082799999999 0.1000174099999999 C
atom_frac 0.5758883700000000 0.0755920400000000 0.3999828599999999 C
atom_frac 0.9241108900000000 0.0755918200000000 0.8999827100000000 C
atom_frac 0.4241117300000000 0.9244080600000002 0.6000172899999999 C
atom_frac 0.7939879700000000 0.8515327600000001 0.1214327700000000 C
atom_frac 0.2939873800000000 0.1484674300000000 0.3785672500000000 C
atom_frac 0.2060118600000000 0.1484673200000000 0.8785673400000000 C
atom_frac 0.7060127000000000 0.8515326399999998 0.6214328699999999 C
atom_frac 0.6742016400000000 0.7583681400000001 0.0969752500000000 C
atom_frac 0.1742012000000000 0.2416319800000000 0.4030247200000000 C
atom_frac 0.3257981900000000 0.2416319300000000 0.9030248399999999 C
atom_frac 0.8257988800000000 0.7583681000000001 0.5969753699999999 C
atom_frac 0.7004053000000000 0.6401326200000000 0.0349874100000000 N
atom_frac 0.2004051500000000 0.3598674600000000 0.4650126800000000 N
atom_frac 0.2995945500000000 0.3598674600000000 0.9650126700000000 N
atom_frac 0.7995949200000000 0.6401326200000002 0.5349874099999999 N
atom_frac 0.6097175300000000 0.4061731600000000 0.8874578400000001 O
atom_frac 0.1097190600000000 0.5938277300000000 0.6125419500000000 O
atom_frac 0.3902823500000000 0.5938269400000000 0.1125422400000000 O
atom_frac 0.8902810100000002 0.4061723899999999 0.3874581400000000 O
atom_frac 0.8820262600000000 0.4027868900000000 0.5583639100000000 O
atom_frac 0.3820251500000000 0.5972139700000001 0.9416369800000000 O
atom_frac 0.1179738200000000 0.5972132400000001 0.4416362200000001 O
atom_frac 0.6179747100000000 0.4027861500000001 0.0583631500000000 O
