#=======================================================
# FHI-aims file: ./geometry.in
# Created using the Atomic Simulation Environment (ASE)
# Mon Feb  7 19:01:09 2022
#=======================================================
lattice_vector 4.6434498099999999 0.0009079400000000 0.6643821300000000 
lattice_vector -0.0010396900000000 7.6933549499999998 -0.0027827600000000 
lattice_vector 0.3121481300000000 0.0042206100000000 27.2063468800000017 
atom_frac 0.7361302600000001 0.2063477400000001 0.2518161800000000 Sc
atom_frac 0.7642001000000000 0.7063404800000000 0.2481678300000000 Sc
atom_frac 0.2638665100000000 0.7936518700000000 0.7481842299999999 Sc
atom_frac 0.2357949300000000 0.2936585700000000 0.7518325800000000 Sc
atom_frac 0.6443869100000000 0.4394392800000000 0.1938193100000000 H
atom_frac 0.8558912400000001 0.9395461600000001 0.3061591200000000 H
atom_frac 0.3555933600000000 0.5605576600000000 0.8061810899999999 H
atom_frac 0.1440931600000000 0.0604555800000000 0.6938413200000000 H
atom_frac 0.2131163100000000 0.0399477200000000 0.2762806999999999 H
atom_frac 0.2872643900000000 0.5399367800000000 0.2237002000000000 H
atom_frac 0.7868783700000002 0.9600527700000002 0.7237196599999999 H
atom_frac 0.7127292200000001 0.4600621900000001 0.7763015599999999 H
atom_frac 0.3608442200000000 0.0473555600000000 0.3243301700000000 H
atom_frac 0.1394422800000000 0.5472803000000002 0.1756623900000000 H
atom_frac 0.6391482000000001 0.9526454200000001 0.6756701500000000 H
atom_frac 0.8605638600000000 0.4527213900000000 0.8243382299999999 H
atom_frac 1.0293561700000000 0.5050199800000001 0.0688627900000000 H
atom_frac 0.4707522900000000 1.0052144800000000 0.4311602300000000 H
atom_frac -0.0293416000000000 0.4949776000000001 0.9311343999999999 H
atom_frac 0.5292564800000000 -0.0052105200000000 0.5688404800000000 H
atom_frac 0.4368838200000000 0.6745832899999999 0.1226061900000000 H
atom_frac 0.0633041200000000 0.1747206100000001 0.3774020600000000 H
atom_frac 0.5631239500000000 0.3254149600000000 0.8773930000000000 H
atom_frac 0.9367004900000001 0.8252791400000000 0.6225985099999999 H
atom_frac 0.8550119900000002 0.1884086800000000 0.0828671200000000 H
atom_frac 0.6453486100000000 0.6885630400000000 0.4171063699999999 H
atom_frac 0.1449879300000000 0.8115875900000001 0.9171330199999999 H
atom_frac 0.3546454100000000 0.3114420600000000 0.5828935899999999 H
atom_frac 0.6542565400000000 0.6162840900000000 1.0143193600000000 H
atom_frac 0.8459061800000000 0.1165384100000000 0.4856920600000000 H
atom_frac 0.3457600100000000 0.3837140400000000 -0.0143219400000000 H
atom_frac 0.1541004400000000 0.8834692800000001 0.5143083300000000 H
atom_frac 0.1783583300000000 0.0912252800000000 0.1243714600000000 C
atom_frac 0.3219455100000000 0.5913444300000001 0.3756124100000000 C
atom_frac 0.8216428200000001 0.9087724200000000 0.8756284600000001 C
atom_frac 0.6780491500000001 0.4086574000000000 0.6243880199999999 C
atom_frac 0.3485240800000000 0.9460456400000001 0.1347523800000000 C
atom_frac 0.1517439200000000 0.4461584800000001 0.3652388700000000 C
atom_frac 0.6514775300000001 0.0539522300000000 0.8652475899999998 C
atom_frac 0.8482534600000001 0.5538420500000001 0.6347615800000000 C
atom_frac 0.3093909200000001 0.7843622600000001 0.1132564300000000 C
atom_frac 0.1908303000000000 0.2845089400000000 0.3867445199999999 C
atom_frac 0.6906146500000000 0.2156356600000000 0.8867431199999999 C
atom_frac 0.8091715000000002 0.7154921700000001 0.6132559499999999 C
atom_frac 0.1088056900000000 0.7714900400000001 0.0812176200000000 C
atom_frac 0.3914047600000001 0.2716704400000001 0.4187843900000000 C
atom_frac 0.8912014600000000 0.2285077500000000 0.9187817099999999 C
atom_frac 0.6085986799999999 0.7283327800000002 0.5812158600000000 C
atom_frac 0.9562662800000001 0.9183851399999999 0.0670440800000000 C
atom_frac 0.5439976300000000 0.4185732400000001 0.4329474799999999 C
atom_frac 0.0437387500000000 0.0816123100000000 0.9329556300000000 C
atom_frac 0.4560027100000000 0.5814313400000000 0.5670528000000000 C
atom_frac 0.9944815100000001 0.0791642100000000 0.0894095000000000 C
atom_frac 0.5058447400000000 0.5793176500000001 0.4105714300000000 C
atom_frac 0.0055213700000000 0.9208331900000001 0.9105902800000000 C
atom_frac 0.4941508700000000 0.4206862100000001 0.5894288800000000 C
atom_frac 0.7871213300000001 0.6996169700000001 0.0340794700000000 C
atom_frac 0.7130375799999999 0.1998486500000000 0.4659323400000000 C
atom_frac 0.2128904000000001 0.3003811400000000 0.9659188799999999 C
atom_frac 0.2869677200000000 0.8001577600000002 0.5340679500000000 C
atom_frac 0.1569156900000000 0.2567893600000000 0.1533160700000000 C
atom_frac 0.3433627400000001 0.7568786500000001 0.3466690200000000 C
atom_frac 0.8430702399999999 0.7432080700000001 0.8466842199999999 C
atom_frac 0.6566327400000000 0.2431226700000000 0.6533312099999999 C
atom_frac 0.5521469100000000 0.9525245700000000 0.1706581800000000 C
atom_frac -0.0518700200000000 0.4525871200000000 0.3293310699999999 C
atom_frac 0.4478532100000001 0.0474736500000000 0.8293419699999999 C
atom_frac 1.0518677299999999 0.5474111900000000 0.6706692200000000 C
atom_frac 0.7712424800000000 0.8705943200000001 0.0354432000000000 N
atom_frac 0.7289844400000000 0.3708202100000000 0.4645540900000000 N
atom_frac 0.2287633300000000 0.1294034100000000 0.9645563399999999 N
atom_frac 0.2710168600000001 0.6291862000000001 0.5354462199999999 N
atom_frac 0.9905305100000000 0.6317216100000002 0.0598413500000000 N
atom_frac 0.5095988700000000 0.1319267100000000 0.4401760599999999 N
atom_frac 0.0094816000000000 0.3682764900000001 0.9401569500000000 N
atom_frac 0.4904085600000000 0.8680778100000001 0.5598240600000000 N
atom_frac 0.5993101500000000 0.0970926000000000 0.1899918700000000 O
atom_frac 0.9010106300000000 0.5971223500000000 0.3099885600000000 O
atom_frac 0.4006880400000001 0.9029057400000002 0.8100084599999999 O
atom_frac 0.0989850200000000 0.4028752600000001 0.6900114999999999 O
atom_frac 0.1791724000000000 0.3999484600000001 0.1307582400000000 O
atom_frac 0.3211414300000001 0.9000573300000001 0.3692303200000000 O
atom_frac 0.8208632200000002 0.6000489300000001 0.8692424600000001 O
atom_frac 0.6788502300000001 0.0999443600000000 0.6307696999999999 O
atom_frac 0.5916233400000001 0.4532382400000001 0.2298407600000000 O
atom_frac 0.9086807700000000 0.9532545700000000 0.2701366099999999 O
atom_frac 0.4083699800000001 0.5467601100000000 0.7701598400000000 O
atom_frac 0.0913109300000000 0.0467449500000000 0.7298638900000000 O
atom_frac 0.3541460800000000 0.1138411300000000 0.2923064100000000 O
atom_frac 0.1461798600000000 0.6138072600000001 0.2076826200000000 O
atom_frac 0.6458483400000001 0.8861594900000000 0.7076937599999999 O
atom_frac 0.8538169300000001 0.3861923800000001 0.7923184700000000 O
atom_frac 0.6702634700000001 0.8120703600000000 0.1827320600000000 O
atom_frac 0.8300046499999999 0.3121129400000001 0.3172607500000000 O
atom_frac 0.3297382200000001 0.1879281900000000 0.8172679499999999 O
atom_frac 0.1699928900000000 0.6878847000000001 0.6827401599999999 O
atom_frac 0.0949723200000000 0.2488542900000000 0.2007470800000000 O
atom_frac 0.4053605700000000 0.7488898200000000 0.2992398099999999 O
atom_frac 0.9050231399999998 0.7511427400000001 0.7992533100000000 O
atom_frac 0.5946341800000000 0.2511100700000000 0.7007604499999999 O
