#=======================================================
# FHI-aims file: ./geometry.in
# Created using the Atomic Simulation Environment (ASE)
# Mon Feb  7 19:01:12 2022
#=======================================================
lattice_vector -7.0191021100000004 0.0101532600000000 -0.4787248200000000 
lattice_vector -1.8386116400000001 -8.2983354299999998 -2.6631809000000000 
lattice_vector -1.8378011299999999 -8.2215965299999993 12.0726625300000006 
atom_frac 0.0726681200000001 0.2748796899999998 0.9582441700000001 Ca
atom_frac 0.5727946900000002 0.2328026600000000 0.0418821300000000 Ca
atom_frac 0.2863438799999999 0.7603018499999998 0.9895971400000002 V
    initial_moment         1.000000
atom_frac 0.7863202300000001 0.7499182800000000 0.0103258300000000 V
    initial_moment        -1.000000
atom_frac 0.5052555500000000 0.0578246199999997 0.8812377900000002 P
atom_frac 0.0052129800000000 0.9394682300000000 0.1188425500000001 P
atom_frac 0.6433555499999999 0.5701704899999998 0.8815423000000002 P
atom_frac 0.1432887900000000 0.4523980200000000 0.1183439700000000 P
atom_frac 0.1310278900000000 0.0506233399999998 0.8535463600000001 H
atom_frac 0.6309466900000000 0.9045489800000002 0.1466355700000000 H
atom_frac 0.9065113099999998 0.0800257999999999 0.8738634400000002 H
atom_frac 0.4064451300000000 0.9541359000000001 0.1263484300000001 H
atom_frac 0.2441049200000000 0.5505538199999997 0.8723604100000001 H
atom_frac 0.7439536000000000 0.4235103100000000 0.1274742100000000 H
atom_frac 0.0168143499999999 0.6064709399999999 0.8612758100000002 H
atom_frac 0.5166693200000000 0.4684096900000000 0.1385652900000000 H
atom_frac 0.2902723600000001 0.3411387500000000 0.7435008800000001 H
atom_frac 0.7892522800000000 0.0862602900000000 0.2561397300000000 H
atom_frac 0.3107274100000001 0.4382306799999999 0.5672742100000001 H
atom_frac 0.8079320799999999 1.0084588300000001 0.4323488300000001 H
atom_frac 0.5761892199999999 0.2989415399999999 0.4811959600000000 H
atom_frac 0.0726389999999999 0.7834389800000000 0.5190169500000001 H
atom_frac 0.8205984100000001 0.0614937400000000 0.5723479100000000 H
atom_frac 0.3180914200000001 0.6364194100000000 0.4283923800000001 H
atom_frac 0.7917461899999999 0.9565068399999999 0.7485622900000001 H
atom_frac 0.2909951900000001 0.7063228999999999 0.2521020600000001 H
atom_frac 0.3676644000000000 0.8089267000000001 0.7451693700000002 H
atom_frac 0.8661604700000000 0.5566202000000000 0.2537996600000000 H
atom_frac 0.3522822800000001 0.8829167499999999 0.5684059100000001 H
atom_frac 0.8481659500000001 0.4555542599999999 0.4304913300000001 H
atom_frac 0.6035405300000001 0.7367030499999999 0.4796917300000001 H
atom_frac 0.0981597400000000 0.2209423700000000 0.5200943600000000 H
atom_frac 0.8623324600000001 0.5085576200000000 0.5687485100000003 H
atom_frac 0.3583852400000000 0.0807995300000000 0.4319856500000001 H
atom_frac 0.8686396100000002 0.4262442199999999 0.7452660500000001 H
atom_frac 0.3673190400000000 0.1733447100000000 0.2554291300000001 H
atom_frac 0.5386873200000000 0.1415849599999999 0.7561779600000001 C
atom_frac 0.0378795200000000 0.8991146700000001 0.2439454000000001 C
atom_frac 0.4041056200000001 0.2775827100000000 0.7055799700000001 C
atom_frac 0.9027832900000000 0.9849866000000002 0.2942724800000001 C
atom_frac 0.4173073599999999 0.3328794999999999 0.6068863000000001 C
atom_frac 0.9149986199999998 0.9423390699999998 0.3929876200000000 C
atom_frac 0.5663032300000003 0.2553044199999999 0.5589383600000001 C
atom_frac 0.0635711600000000 0.8170803199999997 0.4412496200000001 C
atom_frac 0.7028793900000000 0.1220508499999998 0.6097884600000001 C
atom_frac 0.2007239400000000 0.7342219800000001 0.3906869000000001 C
atom_frac 0.6884403500000000 0.0638393299999999 0.7083341300000000 C
atom_frac 0.1872474599999999 0.7738092700000000 0.2921069500000001 C
atom_frac 0.6198364800000001 0.6144959500000000 0.7555123400000001 C
atom_frac 0.1185426100000000 0.3720519000000000 0.2443442100000001 C
atom_frac 0.4738519600000001 0.7416493799999998 0.7060017600000001 C
atom_frac 0.9718157700000000 0.4503905200000001 0.2933388600000000 C
atom_frac 0.4669606700000001 0.7836113200000000 0.6071278100000002 C
atom_frac 0.9634723700000001 0.3944354200000000 0.3921850100000001 C
atom_frac 0.6073522400000001 0.7012543100000000 0.5576362800000001 C
atom_frac 0.1031740000000000 0.2628364999999999 0.4421657600000001 C
atom_frac 0.7525692800000000 0.5742436100000001 0.6072397400000001 C
atom_frac 0.2491822500000000 0.1847637000000000 0.3930738200000001 C
atom_frac 0.7580919100000001 0.5291030199999999 0.7062002100000002 C
atom_frac 0.2561764000000000 0.2376315300000000 0.2941288200000001 C
atom_frac 0.4006580700000001 0.1919135499999999 0.9235894500000001 O
atom_frac 0.9007861700000001 0.1156809200000000 0.0763811600000000 O
atom_frac 0.3806068300000000 0.9307178399999999 0.8901252100000001 O
atom_frac 0.8805973600000001 0.8212057999999999 0.1099059900000000 O
atom_frac 0.7088991000000002 0.9784030700000002 0.9294212800000001 O
atom_frac 0.2090800600000000 0.9077920000000000 0.0708445900000000 O
atom_frac 0.0748358400000000 0.7858640200000000 0.9432005400000001 O
atom_frac 0.5749216700000002 0.7290584800000001 0.0568460800000000 O
atom_frac 0.0147551200000000 0.1369519100000001 0.8527731700000000 O
atom_frac 0.5146765900000000 0.9900935300000000 0.1474359400000000 O
atom_frac 0.1281164099999999 0.5198890400000001 0.8549063600000001 O
atom_frac 0.6279867099999998 0.3754777699999999 0.1450053400000000 O
atom_frac 0.7443170200000001 0.3931814199999999 0.9237462900000002 O
atom_frac 0.2445078700000000 0.3169943700000000 0.0764877600000000 O
atom_frac 0.4370483999999999 0.6017533299999998 0.9266201200000003 O
atom_frac 0.9373002100000001 0.5286799499999999 0.0729157400000000 O
atom_frac 0.7676951700000002 0.6858911699999999 0.8955703800000001 O
atom_frac 0.2677889900000000 0.5819425499999999 0.1042685900000000 O
