#=======================================================
# FHI-aims file: ./geometry.in
# Created using the Atomic Simulation Environment (ASE)
# Mon Feb  7 19:01:13 2022
#=======================================================
lattice_vector 9.1366771100000008 0.0034661500000000 0.0000283500000000 
lattice_vector -2.1022347500000000 10.7021931099999996 -0.0000020800000000 
lattice_vector -0.0000476500000000 -0.0000043700000000 14.6488224000000002 
atom_frac 0.4579370400000000 0.9948773900000001 0.9177830300000001 Cu
atom_frac 0.5420631100000000 0.5051228600000000 0.4177830699999999 Cu
atom_frac 0.5420630700000000 0.0051228100000000 0.0822170500000000 Cu
atom_frac 0.4579370300000000 0.4948773500000000 0.5822170200000000 Cu
atom_frac 0.3653377000000000 0.7306834200000000 0.6378267999999999 H
atom_frac 0.6346622799999999 0.7693166899999999 0.1378267800000000 H
atom_frac 0.6346624100000000 0.2693167700000000 0.3621733000000000 H
atom_frac 0.3653378299999999 0.2306834900000000 0.8621732899999999 H
atom_frac 0.4103478200000000 0.8846834900000000 0.7640925500000000 H
atom_frac 0.5896521800000000 0.6153166300000000 0.2640925900000000 H
atom_frac 0.5896522900000000 0.1153167000000000 0.2359075300000000 H
atom_frac 0.4103479300000000 0.3846835600000000 0.7359074799999999 H
atom_frac 0.7223054900000000 0.6712400899999998 0.8757963700000000 H
atom_frac 0.2776946600000000 0.8287600900000001 0.3757963600000001 H
atom_frac 0.2776946600000000 0.3287601299999999 0.1242037100000000 H
atom_frac 0.7223054900000000 0.1712401100000000 0.6242037300000000 H
atom_frac 0.6728665500000000 0.5334218300000000 0.7443839699999999 H
atom_frac 0.3271335599999999 0.9665783599999999 0.2443839300000000 H
atom_frac 0.3271335900000000 0.4665783800000000 0.2556161200000000 H
atom_frac 0.6728665700000001 0.0334218400000000 0.7556161500000000 H
atom_frac 0.8000295300000000 0.8426943300000000 0.9374434200000000 H
atom_frac 0.1999705100000000 0.6573057700000000 0.4374433600000000 H
atom_frac 0.1999706000000000 0.1573058900000000 0.0625566600000000 H
atom_frac 0.8000296200000000 0.3426944200000000 0.5625567200000000 H
atom_frac 0.1345025000000000 0.8332082200000001 0.1537690500000000 H
atom_frac 0.8654976899999999 0.6667920299999999 0.6537690300000000 H
atom_frac 0.8654975800000000 0.1667919600000000 0.8462310600000000 H
atom_frac 0.1345024400000000 0.3332081600000000 0.3462310399999999 H
atom_frac 0.9261167200000001 0.7996602000000000 0.0448261400000000 H
atom_frac 0.0738833400000000 0.7003399300000001 0.5448260500000000 H
atom_frac 0.0738833700000000 0.2003399900000000 0.9551739700000000 H
atom_frac 0.9261167699999999 0.2996602600000000 0.4551740200000000 H
atom_frac 0.8005723100000000 0.1347191200000000 0.1513252900000000 H
atom_frac 0.1994277400000000 0.3652810200000000 0.6513253299999999 H
atom_frac 0.1994278100000000 0.8652810799999999 0.8486747899999999 H
atom_frac 0.8005723900000000 0.6347191800000000 0.3486747400000000 H
atom_frac 0.0121757300000000 0.1498711500000000 0.2608318300000000 H
atom_frac 0.9878244400000000 0.3501291000000000 0.7608319300000000 H
atom_frac 0.9878244000000000 0.8501290500000001 0.7391682500000000 H
atom_frac 0.0121756800000000 0.6498710900000000 0.2391681400000000 H
atom_frac 0.4448554199999999 0.7211548200000000 0.6920534100000000 C
atom_frac 0.5551446100000000 0.7788453100000000 0.1920533900000000 C
atom_frac 0.5551447000000000 0.2788453700000000 0.3079466900000000 C
atom_frac 0.4448555000000000 0.2211548800000000 0.8079466700000000 C
atom_frac 0.4692844600000000 0.8062865199999999 0.7624985099999999 C
atom_frac 0.5307155800000000 0.6937136199999999 0.2624985200000000 C
atom_frac 0.5307156600000000 0.1937136700000001 0.2375015800000000 C
atom_frac 0.4692845399999999 0.3062865800000000 0.7375015500000000 C
atom_frac 0.5707729900000000 0.7936870199999999 0.8325078400000000 C
atom_frac 0.4292270800000000 0.7063131200000000 0.3325078400000000 C
atom_frac 0.4292271400000000 0.2063131800000000 0.1674922500000000 C
atom_frac 0.5707730500000000 0.2936870800000000 0.6674922300000001 C
atom_frac 0.6436881100000000 0.6915416800000000 0.8243941299999999 C
atom_frac 0.3563119900000000 0.8084584999999999 0.3243941100000001 C
atom_frac 0.3563120300000000 0.3084585300000000 0.1756059600000000 C
atom_frac 0.6436881500000000 0.1915417099999999 0.6756059700000000 C
atom_frac 0.6131486600000000 0.6112480900000000 0.7508685299999999 C
atom_frac 0.3868514400000000 0.8887520900000000 0.2508685000000000 C
atom_frac 0.3868514800000000 0.3887521200000000 0.2491315600000000 C
atom_frac 0.6131486900000001 0.1112481000000000 0.7491315699999999 C
atom_frac 0.7066582100000000 0.8869114400000000 0.9581366900000000 C
atom_frac 0.2933418300000000 0.6130886699999999 0.4581366700000001 C
atom_frac 0.2933419200000000 0.1130887700000000 0.0418633900000000 C
atom_frac 0.7066583000000000 0.3869115299999999 0.5418634100000000 C
atom_frac 0.0566145800000000 0.8984153200000000 0.1528444500000000 C
atom_frac 0.9433855799999998 0.6015849000000000 0.6528444300000001 C
atom_frac 0.9433855199999999 0.1015848700000000 0.8471556600000000 C
atom_frac 0.0566145500000000 0.3984152899999999 0.3471556300000000 C
atom_frac 0.9403078899999999 0.8804912799999999 0.0903623700000000 C
atom_frac 0.0596922000000000 0.6195088800000000 0.5903623200000000 C
atom_frac 0.0596922200000000 0.1195089100000000 0.9096377299999999 C
atom_frac 0.9403079299999999 0.3804913200000000 0.4096377500000000 C
atom_frac 0.8419915200000001 0.9651080500000002 0.0888436500000000 C
atom_frac 0.1580085400000000 0.5348920800000001 0.5888436400000000 C
atom_frac 0.1580085900000000 0.0348921500000000 0.9111564400000000 C
atom_frac 0.8419915800000000 0.4651081100000001 0.4111564400000000 C
atom_frac 0.8714675600000000 0.0643428800000000 0.1513831400000000 C
atom_frac 0.1285325100000000 0.4356572799999999 0.6513831700000000 C
atom_frac 0.1285325500000000 0.9356573299999998 0.8486169400000000 C
atom_frac 0.8714676099999999 0.5643429100000000 0.3486169000000000 C
atom_frac 0.9900920199999999 0.0726255200000000 0.2116477800000000 C
atom_frac 0.0099081200000000 0.4273747000000001 0.7116478300000000 C
atom_frac 0.0099080900000000 0.9273746800000000 0.7883523099999999 C
atom_frac 0.9900920000000000 0.5726254900000000 0.2883522400000000 C
atom_frac 0.5137844200000000 0.6230218600000000 0.6849669799999999 N
atom_frac 0.4862156500000000 0.8769782900000000 0.1849669500000000 N
atom_frac 0.4862157100000000 0.3769783299999999 0.3150331100000000 N
atom_frac 0.5137844700000000 0.1230219000000000 0.8150331199999999 N
atom_frac 0.5879431300000000 0.8773220700000001 0.9041888099999998 N
atom_frac 0.4120569300000000 0.6226780700000001 0.4041888200000000 N
atom_frac 0.4120569900000000 0.1226781400000000 0.0958112800000000 N
atom_frac 0.5879432100000000 0.3773221300000000 0.5958112700000000 N
atom_frac 0.7166076600000000 0.9551499800000000 0.0334340100000000 N
atom_frac 0.2833923900000000 0.5448501400000001 0.5334340100000000 N
atom_frac 0.2833924700000000 0.0448502300000000 0.9665660800000000 N
atom_frac 0.7166077500000001 0.4551500600000001 0.4665660800000000 N
atom_frac 0.0828435000000000 -0.0086305300000000 0.2140492800000000 N
atom_frac 0.9171567000000000 0.5086307899999999 0.7140493200000000 N
atom_frac 0.9171566099999999 1.0086307299999999 0.7859508200000000 N
atom_frac 0.0828434300000000 0.4913693999999999 0.2859507499999999 N
