#=======================================================
# FHI-aims file: ./geometry.in
# Created using the Atomic Simulation Environment (ASE)
# Mon Feb  7 19:01:11 2022
#=======================================================
lattice_vector -4.2131701699999997 -0.4269502300000000 -0.9315317700000000 
lattice_vector -4.2043245499999999 -0.7890146500000000 9.3127033099999998 
lattice_vector -2.5512717600000001 3.4099966899999998 0.1758382400000000 
atom_frac 0.9881999800000001 0.4972721800000002 0.5211088800000000 V
    initial_moment         2.000000
atom_frac -0.0217388500000000 0.1204263900000000 1.0035002799999999 H
atom_frac 0.7050297699999993 1.0056794000000002 0.4083213600000000 H
atom_frac 0.1034646100000000 0.8788620700000001 -0.0064634100000000 H
atom_frac 1.1045783300000001 -0.0041295200000000 0.6032430800000000 H
atom_frac 0.6413176500000000 0.2575782800000000 0.4609270400000000 H
atom_frac 0.9262005600000000 0.3619436400000000 0.0793246800000000 H
atom_frac 0.3427160000000002 0.7412696900000000 0.5528619600000000 H
atom_frac 0.3756768399999999 0.6363039900000002 0.9139462000000000 H
atom_frac 0.5910034099999998 0.9327485400000003 0.9463058799999999 C
atom_frac 0.4652769100000000 0.0657755400000000 0.0639243700000000 C
atom_frac 0.3508643599999998 0.8360800200000001 1.0534774499999999 C
atom_frac 0.9502146900000000 0.9096559300000000 0.7137584100000000 C
atom_frac 0.2354918900000000 0.1626961000000000 -0.0464708900000000 C
atom_frac 0.5705165600000001 0.0904969200000000 0.2971675899999999 C
atom_frac 0.5277834000000002 0.7215850000000000 0.8340620799999998 C
atom_frac 1.1047283599999995 0.7961666700000002 0.5000454300000000 C
atom_frac 0.0835218200000000 0.2778877100000001 0.1658605400000000 C
atom_frac 0.4061789800000000 0.2055927400000000 0.5022863099999999 C
atom_frac 0.8663087599999998 0.7052110000000000 0.5860813600000000 N
atom_frac 0.1693813300000000 0.2984988300000000 0.4084264899999999 N
atom_frac 0.6205351399999998 0.4101154000000001 0.8722308499999998 F
atom_frac 1.0055676700000000 0.5687908900000000 0.0787506700000000 F
atom_frac 0.4146265299999997 0.5347437600000002 0.4153525900000000 F
