#=======================================================
# FHI-aims file: ./geometry.in
# Created using the Atomic Simulation Environment (ASE)
# Mon Feb  7 19:01:09 2022
#=======================================================
lattice_vector -8.7657884599999996 -0.2623367600000000 -0.9723335800000000 
lattice_vector 0.4368582900000000 0.1086916900000000 -9.9594906299999995 
lattice_vector -3.5092553799999999 -9.6781633100000004 -2.2113787600000001 
atom_frac 0.9301556300000000 0.8861450699999998 0.8818793400000001 Ni
    initial_moment         2.000000
atom_frac 0.0698428000000000 0.1138541500000000 0.1181210800000000 Ni
atom_frac 0.8848423800000000 0.4355378300000000 0.9403288799999999 H
atom_frac 0.1151552800000000 0.5644623599999999 0.0596709200000000 H
atom_frac 0.8334403100000000 0.2035330200000000 0.6531188500000000 H
atom_frac 0.1665572700000000 0.7964656200000001 0.3468815500000000 H
atom_frac 0.7714371000000000 0.4155311600000000 0.5154353000000000 H
atom_frac 0.2285614300000000 0.5844670300000000 0.4845645299999999 H
atom_frac 0.7592739499999999 0.6397608299999999 0.5970531200000000 H
atom_frac 0.2407229800000000 0.3602373499999999 0.4029464900000000 H
atom_frac 0.0232094500000000 0.0534714200000000 0.6121797600000000 H
atom_frac 0.9767894200000000 0.9465274500000002 0.3878199000000000 H
atom_frac 0.2456569600000000 0.0580790400000000 0.3826373900000000 H
atom_frac 0.7543419800000000 0.9419202599999997 0.6173629100000001 H
atom_frac 0.4648457700000000 0.7208145800000000 0.5781943700000000 H
atom_frac 0.5351530499999999 0.2791842600000000 0.4218055300000000 H
atom_frac 0.2236549600000000 0.7283590199999999 0.7980632900000000 H
atom_frac 0.7763431500000000 0.2716396799999999 0.2019367600000000 H
atom_frac 0.4281285300000000 0.0672949000000000 0.2112841700000000 H
atom_frac 0.5718705300000000 0.9327047199999999 0.7887165400000000 H
atom_frac 0.6418182000000000 0.0538749000000000 -0.0160797900000000 H
atom_frac 0.3581803900000000 0.9461250100000000 1.0160800699999999 H
atom_frac 0.8336410800000000 0.6994487800000000 0.1362766800000000 H
atom_frac 0.1663568199999999 0.3005501000000000 0.8637220900000001 H
atom_frac 0.6257010600000000 0.6942419399999997 0.3744080800000000 H
atom_frac 0.3742969199999999 0.3057560100000000 0.6255909200000002 H
atom_frac 0.8202799700000000 0.6882822300000000 0.8086013900000000 C
atom_frac 0.1797416400000000 0.3117227100000000 0.1913785800000000 C
atom_frac 0.8222614800000001 0.5509120999999999 0.7714895600000000 C
atom_frac 0.1777369300000000 0.4490871299999999 0.2285092200000000 C
atom_frac 0.8590958000000000 0.4319258799999999 0.8472844899999999 C
atom_frac 0.1409023500000000 0.5680736900000000 0.1527151800000000 C
atom_frac 0.8613755500000001 0.3064132599999999 0.8053634000000000 C
atom_frac 0.1386237200000000 0.6935859400000000 0.1946362800000000 C
atom_frac 0.8925250499999999 0.1782398600000000 0.8909324400000000 C
atom_frac 0.1074777600000000 0.8217597699999998 0.1090657100000000 C
atom_frac 0.8306327800000001 0.3020109499999999 0.6853345700000000 C
atom_frac 0.1693652300000000 0.6979876999999999 0.3146656400000000 C
atom_frac 0.7940389599999998 0.4204183200000001 0.6097216100000000 C
atom_frac 0.2059599200000000 0.5795801600000000 0.3902780000000000 C
atom_frac 0.7878698700000000 0.5443798499999999 0.6536462100000000 C
atom_frac 0.2121269300000000 0.4556185200000000 0.3463537100000000 C
atom_frac 0.1224246500000000 0.9793310199999999 0.5977239800000000 C
atom_frac 0.8775742500000000 0.0206679400000000 0.4022761100000000 C
atom_frac 0.2495921300000000 0.9810403999999999 0.4701396200000000 C
atom_frac 0.7504068599999999 0.0189586600000000 0.5298605100000000 C
atom_frac 0.3765906700000000 0.8858588500000000 0.4562308600000000 C
atom_frac 0.6234082900000001 0.1141401700000000 0.5437692100000000 C
atom_frac 0.3683385700000000 0.7951603199999999 0.5774071599999999 C
atom_frac 0.6316601600000000 0.2048384900000000 0.4225928700000001 C
atom_frac 0.2351226700000000 0.7979251799999998 0.7016253500000000 C
atom_frac 0.7648759000000001 0.2020735900000000 0.2983746600000000 C
atom_frac 0.5075187999999999 0.8825547599999999 0.3181832500000000 C
atom_frac 0.4924799500000000 0.1174442200000000 0.6818167300000000 C
atom_frac 0.5152766300000000 0.9828379699999997 0.2036063100000000 C
atom_frac 0.4847219500000000 0.0171613700000000 0.7963939300000000 C
atom_frac 0.6363570600000000 0.9774703699999997 0.0741779900000000 C
atom_frac 0.3636414900000001 0.0225294100000000 0.9258221999999999 C
atom_frac 0.7423122300000000 0.7801557000000000 0.1596493100000000 C
atom_frac 0.2576858799999999 0.2198433099999999 0.8403500800000001 C
atom_frac 0.6246981500000000 0.7788704900000000 0.2923863500000000 C
atom_frac 0.3753001500000000 0.2211281600000000 0.7076131200000000 C
atom_frac 0.1127287800000000 0.8881183999999998 0.7114483000000000 N
atom_frac 0.8872699799999999 0.1118806700000000 0.2885519500000000 N
atom_frac 0.7508625900000000 0.8796782099999999 0.0514656300000000 N
atom_frac 0.2491357299999999 0.1203214100000000 0.9485342800000001 N
atom_frac 0.7460438900000002 0.7829322100000000 0.7628047300000000 O
atom_frac 0.2539473500000000 0.2170654800000000 0.2372019000000000 O
atom_frac 0.9042262799999999 0.7005745499999999 0.8839458600000000 O
atom_frac 0.0957705700000000 0.2994245100000000 0.1160559200000000 O
atom_frac 0.8859672200000001 0.1791971700000000 0.0109598400000000 O
atom_frac 0.1140311699999999 0.8208014199999998 0.9890397800000001 O
atom_frac 0.9218027500000002 0.0737241900000000 0.8287583899999998 O
atom_frac 0.0781979000000000 0.9262750699999999 0.1712404200000000 O
