#=======================================================
# FHI-aims file: ./geometry.in
# Created using the Atomic Simulation Environment (ASE)
# Mon Feb  7 19:01:08 2022
#=======================================================
lattice_vector 8.7069119700000002 0.2813499200000000 0.0001417700000000 
lattice_vector -2.1246763199999998 7.8222476900000002 -0.0000325600000000 
lattice_vector -0.0002480300000000 -0.0000071300000000 14.1168117199999994 
atom_frac 0.5770089100000000 0.5384561699999999 0.4369125700000000 Co
    initial_moment         1.000000
atom_frac 0.4229912100000000 -0.0384549000000000 0.9369129300000000 Co
    initial_moment        -1.000000
atom_frac 0.4229892200000000 0.4615412400000000 0.5630872500000000 Co
    initial_moment         1.000000
atom_frac 0.5770114599999999 1.0384590099999997 0.0630868000000000 Co
    initial_moment        -1.000000
atom_frac 0.9407009299999999 0.2886193100000000 0.4737164900000000 H
atom_frac 0.0593046900000000 0.2113829700000000 0.9737179700000000 H
atom_frac 0.0592967600000000 0.7113777100000001 0.5262830100000000 H
atom_frac 0.9406967099999998 0.7886194299999998 0.0262817800000000 H
atom_frac 0.1473379900000000 0.1545680600000000 0.5331417100000000 H
atom_frac 0.8526656500000002 0.3454351799999999 0.0331424000000000 H
atom_frac 0.8526607700000000 0.8454299899999999 0.4668579000000000 H
atom_frac 0.1473355400000000 0.6545672199999999 0.9668573600000000 H
atom_frac 0.9028362100000000 0.0659294200000000 0.8020798500000000 H
atom_frac 0.0971674100000000 0.4340734399999999 0.3020808000000000 H
atom_frac 0.0971640200000000 0.9340703000000001 0.1979202200000000 H
atom_frac 0.9028319000000000 0.5659258999999999 0.6979196199999999 H
atom_frac 0.6981519300000001 0.2015394400000000 0.7415728999999999 H
atom_frac 0.3018493600000001 0.2984635500000000 0.2415753800000000 H
atom_frac 0.3018478399999999 0.7984600299999998 0.2584272699999999 H
atom_frac 0.6981494499999999 0.7015347599999999 0.7584253599999999 H
atom_frac 0.1303438100000000 0.0674739900000000 0.8591162000000000 H
atom_frac 0.8696536900000000 0.4325205900000000 0.3591172600000000 H
atom_frac 0.8696581600000000 0.9325300499999999 0.1408835500000000 H
atom_frac 0.1303444300000000 0.5674763800000001 0.6408826700000000 H
atom_frac 0.2843580200000000 -0.0194598700000000 0.5820549000000000 H
atom_frac 0.7156465900000000 0.5194640600000001 0.0820559000000000 H
atom_frac 0.7156394200000001 1.0194554700000000 0.4179451100000000 H
atom_frac 0.2843558400000000 0.4805402400000000 0.9179441699999999 H
atom_frac 0.4868218899999999 0.8972531299999997 0.7143856599999999 H
atom_frac 0.5131803500000000 0.6027494300000000 0.2143878800000000 H
atom_frac 0.5131768300000000 0.1027446700000000 0.2856142799999999 H
atom_frac 0.4868209400000000 0.3972532300000000 0.7856120100000000 H
atom_frac 0.8058769300000000 0.2550742900000000 0.6033049399999999 C
atom_frac 0.1941253600000000 0.2449272800000000 0.1033059900000000 C
atom_frac 0.1941216900000000 0.7449233300000000 0.3966948200000000 C
atom_frac 0.8058750300000002 0.7550738700000000 0.8966940199999999 C
atom_frac 0.9316737300000000 0.2374740500000000 0.5455536500000000 C
atom_frac 0.0683290600000000 0.2625286700000000 0.0455550200000000 C
atom_frac 0.0683246800000000 0.7625235499999999 0.4544459600000000 C
atom_frac 0.9316718000000000 0.7374730900000001 0.9544448600000000 C
atom_frac 0.0473109700000000 0.1605106600000000 0.5788543199999999 C
atom_frac 0.9526918499999999 0.3394924400000000 0.0788555400000000 C
atom_frac 0.9526878900000000 0.8394876099999998 0.4211453499999999 C
atom_frac 0.0473089900000000 0.6605093299999999 0.9211443800000000 C
atom_frac 0.0393558500000000 0.1021106200000000 0.6719795800000000 C
atom_frac 0.9606467100000000 0.3978920000000000 0.1719807800000000 C
atom_frac 0.9606435600000001 0.8978884199999998 0.3280202400000000 C
atom_frac 0.0393537500000000 0.6021091000000000 0.8280192700000000 C
atom_frac 0.9124408300000001 0.1151479800000000 0.7297711799999999 C
atom_frac 0.0875622600000000 0.3848550299999999 0.2297720800000000 C
atom_frac 0.0875587300000000 0.8848510799999999 0.2702287700000000 C
atom_frac 0.9124377900000000 0.6151453499999999 0.7702281200000000 C
atom_frac 0.7961303000000000 0.1903307400000000 0.6954885499999999 C
atom_frac 0.2038725900000000 0.3096716600000000 0.1954896000000000 C
atom_frac 0.2038688100000000 0.8096676400000000 0.3045113500000000 C
atom_frac 0.7961274300000000 0.6903285799999999 0.8045106299999999 C
atom_frac 0.6897378500000000 0.3466193300000000 0.5672933900000000 C
atom_frac 0.3102638900000000 0.1533825300000000 0.0672937200000000 C
atom_frac 0.3102597700000000 0.6533771700000000 0.4327061900000000 C
atom_frac 0.6897383400000000 0.8466212299999999 0.9327058499999999 C
atom_frac 0.1975491400000000 0.0288973100000000 0.8021033499999999 C
atom_frac 0.8024509700000000 0.4711014000000000 0.3021045300000000 C
atom_frac 0.8024520399999999 0.9711050300000000 0.1978965400000000 C
atom_frac 0.1975480800000000 0.5288973499999999 0.6978955100000001 C
atom_frac 0.2809873300000000 -0.0159949100000000 0.6589325799999999 C
atom_frac 0.7190157500000000 0.5159979500000000 0.1589336400000000 C
atom_frac 0.7190113400000001 1.0159924600000001 0.3410674300000000 C
atom_frac 0.2809856700000000 0.4840049000000000 0.8410664399999999 C
atom_frac 0.3811991300000000 -0.0552627300000000 0.7251191199999999 C
atom_frac 0.6188031700000000 0.5552649999999999 0.2251200100000000 C
atom_frac 0.6188002300000000 1.0552616399999999 0.2748808900000000 C
atom_frac 0.3811976200000000 0.4447368100000000 0.7748800299999999 C
atom_frac 0.3280733700000000 -0.0258114000000000 0.8141340700000002 N
atom_frac 0.6719270599999999 0.5258110899999999 0.3141349700000000 N
atom_frac 0.6719273800000000 1.0258129899999997 0.1858659000000000 N
atom_frac 0.3280723300000000 0.4741883199999999 0.6858650299999999 N
atom_frac 0.1637811000000000 0.0364734700000000 0.7087382399999999 N
atom_frac 0.8362205200000000 0.4635274300000000 0.2087395200000000 N
atom_frac 0.8362187400000000 0.9635263799999999 0.2912617000000000 N
atom_frac 0.1637797600000000 0.5364733600000000 0.7912605799999999 N
atom_frac 0.3815449200000000 0.2753442700000000 0.4357606200000000 Cl
atom_frac 0.6184571500000000 0.2246576800000000 0.9357621400000000 Cl
atom_frac 0.6184536499999999 0.7246532999999998 0.5642388699999999 Cl
atom_frac 0.3815448600000000 0.7753454000000000 0.0642374600000000 Cl
atom_frac 0.7218004300000000 0.4232251400000000 0.4882208399999999 O
atom_frac 0.2781997700000000 0.0767749000000000 0.9882214499999998 O
atom_frac 0.2781972300000000 0.5767714900000001 0.5117787300000000 O
atom_frac 0.7218017200000000 0.9232268399999999 0.0117784900000000 O
atom_frac 0.5673369300000000 0.3470035899999999 0.6164258900000000 O
atom_frac 0.4326632900000000 0.1529944100000000 0.1164264100000000 O
atom_frac 0.4326616600000000 0.6529946399999998 0.3835742000000000 O
atom_frac 0.5673378600000000 0.8470076299999999 0.8835736100000000 O
