#=======================================================
# FHI-aims file: geometry_Sc4H20C24N8O24.in
# Created using the Atomic Simulation Environment (ASE)
# Tue Dec 21 17:26:30 2021
#=======================================================
lattice_vector 6.6197783289999999 0.0696172200000000 -0.0000437450000000 
lattice_vector -2.1526432070000001 9.4961741209999992 0.0000044180000000 
lattice_vector -0.0000841140000000 -0.0000132750000000 13.2105951269999995 
atom_frac 0.8912073652534501 0.6258003713637520 0.9544760171560541 Sc
atom_frac 0.1087925738751636 0.8742017670277491 0.4544731587933485 Sc
atom_frac 0.1087913835513845 0.3742008945312350 0.0455280856068541 Sc
atom_frac 0.8912137099501080 0.1257994436125784 0.5455203464401636 Sc
atom_frac 0.0627750525558994 0.8221731590676384 0.7307542938775954 H
atom_frac 0.9372235328911598 0.6778283637572430 0.2307547824221318 H
atom_frac 0.9372350691708178 0.1778259173306722 0.2692429962101884 H
atom_frac 0.0627652093207800 0.3221792938234957 0.7692440215283228 H
atom_frac 0.5986827234761094 0.4032560175126961 0.6014698301934160 H
atom_frac 0.4013132899162031 0.0967445436154861 0.1014706086399357 H
atom_frac 0.4013111626010256 0.5967442309746147 0.3985335155855624 H
atom_frac 0.5986999863983798 0.9032502974314911 0.8985251675233671 H
atom_frac 0.2494297306629107 0.5643038057069205 0.8889318236850843 H
atom_frac 0.7505651315976749 0.9356971335926830 0.3889271187382520 H
atom_frac 0.7505654613183524 0.4356911679230608 0.1110677372591411 H
atom_frac 0.2494309446957530 0.0643052049429613 0.6110716852382653 H
atom_frac 0.6648503530732482 0.8104774990618752 0.0365756045464991 H
atom_frac 0.3351409430641042 0.6895214281934302 0.5365762515836466 H
atom_frac 0.3351433924599830 0.1895269626784497 0.9634277412306036 H
atom_frac 0.6648514359811201 0.3104788313420457 0.4634270941903367 H
atom_frac 0.5224643472752605 0.6528974575658992 0.0343209345486031 H
atom_frac 0.4775340831445262 0.8471003580228141 0.5343178773840762 H
atom_frac 0.4775290566260323 0.3471059536222257 0.9656816542595481 H
atom_frac 0.5224681618701722 0.1528977230720514 0.4656847114551327 H
atom_frac 0.9571133383489822 0.7303296719256239 0.7005784791186969 C
atom_frac 0.0428882925488594 0.7696696380941361 0.2005790390420971 C
atom_frac 0.0428979487876475 0.2696683428733023 0.2994188109733004 C
atom_frac 0.9571077837445685 0.2303327004415082 0.7994197649344202 C
atom_frac 0.8153439744885063 0.5982035962879452 0.5642942617416794 C
atom_frac 0.1846564084745879 0.9017932357373440 0.0642949152181700 C
atom_frac 0.1846647807998920 0.4017912779104478 0.4357068131838275 C
atom_frac 0.8153468613564241 0.0982079970062273 0.9357038887825340 C
atom_frac 0.6998906527796150 0.4987812815090678 0.6281774843087932 C
atom_frac 0.3001079105983138 0.0012203886517810 0.1281784133530834 C
atom_frac 0.3001115922152024 0.5012167995838227 0.3718235905940760 C
atom_frac 0.6999010457085432 0.9987797493449334 0.8718181197623098 C
atom_frac 0.7232355918885386 0.5243543338361506 0.7311880523536303 C
atom_frac 0.2767596492526111 0.9756461616620630 0.2311877524884595 C
atom_frac 0.2767681601381967 0.4756437362085678 0.2688130225542338 C
atom_frac 0.7232462929804768 0.0243539984300085 0.7688080236487808 C
atom_frac 0.6018175366784247 0.4237352636076254 0.8066498406772171 C
atom_frac 0.3981796851949538 0.0762669153750721 0.3066528829684217 C
atom_frac 0.3981780575087228 0.5762702376357396 0.1933535051056623 C
atom_frac 0.6018339327615080 0.9237289762250852 0.6933444071320026 C
atom_frac 0.8190929538614141 0.5788492231619956 0.4510223208406289 C
atom_frac 0.1808934718918992 0.9211487924248376 0.9510240623355346 C
atom_frac 0.1808985407821950 0.4211436714589497 0.5489749691875404 C
atom_frac 0.8190990476574738 0.0788472538536809 0.0489762555676450 C
atom_frac 0.8547140701315497 0.6374596021666434 0.7679649914056769 N
atom_frac 0.1452854924490126 0.8625420175307000 0.2679654103976077 N
atom_frac 0.1452926959391405 0.3625384457797622 0.2320345695758378 N
atom_frac 0.8547177773422445 0.1374592152089278 0.7320303657304238 N
atom_frac 0.9390485538288685 0.7162509793372041 0.5999160399734295 N
atom_frac 0.0609470780290309 0.7837470401670572 0.0999159531305125 N
atom_frac 0.0609560219559668 0.2837449785539619 0.4000827640333641 N
atom_frac 0.9390481744764827 0.2162574105191837 0.9000828508425729 N
atom_frac 0.6397436625666088 0.4613283971711652 0.9010771909214415 O
atom_frac 0.3602417923580106 0.0386720259670739 0.4010777362402891 O
atom_frac 0.3602464461631527 0.5386834626173780 0.0989238839366351 O
atom_frac 0.6397701174884390 0.9613186128770298 0.5989195538562344 O
atom_frac 0.4797488404625198 0.3171057632486836 0.7776386670607708 O
atom_frac 0.5202459114915284 0.1828910874526173 0.2776424464518072 O
atom_frac 0.5202410672090281 0.6829008327376016 0.2223639217347397 O
atom_frac 0.4797636675549697 0.8171016745922233 0.7223563575726291 O
atom_frac 0.9265398437372240 0.6831111278488535 0.4024245283723076 O
atom_frac 0.0734461296417024 0.8168846490693794 0.9024256280127080 O
atom_frac 0.0734590455618189 0.3168859247881883 0.5975757895516268 O
atom_frac 0.9265514537035244 0.1831176784200608 0.0975746899051444 O
atom_frac 0.7279998009658610 0.4661955524984976 0.4115454099102324 O
atom_frac 0.2719777104823605 0.0338028520343059 0.9115487707069436 O
atom_frac 0.2719870321076669 0.5338015885268846 0.5884571788782580 O
atom_frac 0.7280172004110881 0.9662005481017034 0.0884507902335301 O
atom_frac 0.1244788606052438 0.5191360579944656 0.9244014394798798 O
atom_frac 0.8755172746824159 0.9808660241953224 0.4243960179037174 O
atom_frac 0.8755180395556007 0.4808641683984619 0.0756034202454217 O
atom_frac 0.1244801075747688 0.0191310394889044 0.5756035430470590 O
atom_frac 0.6365969390535540 0.7195882305654847 0.9975163527538129 O
atom_frac 0.3633952286483719 0.7804098729114912 0.4975137293732176 O
atom_frac 0.3634024930151583 0.2804151364338878 0.0024892639469911 O
atom_frac 0.6366013298904746 0.2195893029302313 0.5024911303513023 O
