#=======================================================
# FHI-aims file: ./geometry.in
# Created using the Atomic Simulation Environment (ASE)
# Mon Feb  7 19:01:12 2022
#=======================================================
lattice_vector 4.1144936300000001 -0.1085071300000000 -1.1014149099999999 
lattice_vector 0.1873307700000000 17.9793490499999997 -0.2577165700000000 
lattice_vector -0.6571762600000000 -0.0129558600000000 20.1298130099999995 
atom_frac 0.3116019200000000 0.2765748200000000 -0.0332220800000000 Cu
    initial_moment         1.000000
atom_frac 1.1393179899999999 0.7687489300000001 0.5320834699999999 Cu
    initial_moment        -1.000000
atom_frac 0.6519463500000000 0.7290193800000000 1.0309599000000000 Cu
    initial_moment         1.000000
atom_frac -0.1144843200000000 0.2431709800000000 0.4744597400000000 Cu
atom_frac 1.0039176900000000 0.7401304800000000 0.3383214500000000 H
atom_frac 0.3427881800000000 0.2301532900000001 0.1668113800000000 H
atom_frac -0.0266895600000000 0.2611094100000000 0.6607821300000000 H
atom_frac 0.4848948100000000 0.7661247700000000 0.8393826999999999 H
atom_frac 0.4144479300000000 0.6361654500000001 0.4050048199999999 H
atom_frac 0.5676961400000000 0.1371315100000000 0.0973933200000000 H
atom_frac 0.5596187699999999 0.3645653300000001 0.5931998300000000 H
atom_frac 0.9025745600000000 0.8738531000000000 0.9058145199999998 H
atom_frac 1.1696982300000001 0.5053503499999998 0.3606364100000000 H
atom_frac 0.5213835399999999 -0.0007896000000000 0.1371999100000000 H
atom_frac -0.1966995200000000 0.4955049100000000 0.6368781900000000 H
atom_frac 0.6710791500000000 1.0015784400000001 0.8604557400000000 H
atom_frac 0.9630410700000001 0.4924167000000000 0.2357975200000000 H
atom_frac 0.6963251100000000 -0.0118337200000000 0.2646438700000000 H
atom_frac 0.0093038400000000 0.5091286600000000 0.7620097000000000 H
atom_frac 0.4643418600000000 1.0085305300000000 0.7350552399999999 H
atom_frac 0.8450140100000000 0.5062607200000001 0.1385419700000000 H
atom_frac 0.7240413400000000 0.0105486500000000 0.3687438199999999 H
atom_frac 0.1273234500000000 0.4960915100000001 0.8590898800000000 H
atom_frac 0.3450429500000000 0.9903479200000003 0.6377993800000000 H
atom_frac 0.6501244200000000 0.5858401200000000 0.0978566400000000 H
atom_frac 0.5886583399999999 0.0900585900000000 0.4051567200000000 H
atom_frac 0.3237786200000000 0.4170167300000000 0.9004793299999998 H
atom_frac 0.1416187600000000 0.9091904100000002 0.5975867200000000 H
atom_frac 0.6962655600000000 0.7857711200000000 0.2008716200000000 H
atom_frac 0.8863431700000000 0.2796616500000000 0.3112767700000000 H
atom_frac 0.2792078000000000 0.2157789600000000 0.7978579999999998 H
atom_frac 0.1700229200000000 0.7138638899999999 0.7013781399999999 H
atom_frac 1.1013986400000000 0.7917256499999999 0.2623820100000000 H
atom_frac 0.5170459900000000 0.2929048800000000 0.2438959500000000 H
atom_frac -0.1255698600000000 0.2094283800000000 0.7365839500000000 H
atom_frac 0.5756739400000001 0.7105076400000000 0.7625287099999999 H
atom_frac 0.2121260400000000 0.3961278200000000 0.0732927300000000 H
atom_frac 1.2328882500000000 0.8945492700000001 0.4307883600000000 H
atom_frac 0.7019394200000000 0.6065929000000000 0.9219211500000000 H
atom_frac -0.2723961100000000 0.1090786700000000 0.5658948300000000 H
atom_frac 1.0190786999999999 0.2638198200000000 0.0766058000000000 H
atom_frac 0.4176305000000000 -0.2392032500000000 0.4271476300000001 H
atom_frac -0.0766407000000000 0.7427212000000001 0.9295592600000000 H
atom_frac 0.5641898800000000 1.2403713199999999 0.5814097900000000 H
atom_frac 1.0725778500000001 0.8641557900000001 1.0180817300000000 H
atom_frac 0.4684219200000000 0.3781628100000000 0.4804208400000000 H
atom_frac -0.0892051200000000 0.1397554800000000 -0.0180055800000000 H
atom_frac 0.5254672300000000 0.6287157600000000 0.5172751500000000 H
atom_frac 1.4627786500000000 0.8584366599999999 0.2333044400000000 H
atom_frac 0.1065248400000000 0.3523392800000000 0.2646948000000000 H
atom_frac -0.4808693600000001 0.1418135700000000 0.7661877499999999 H
atom_frac 0.9258733200000000 0.6415706000000000 0.7322624300000000 H
atom_frac -0.1398153700000000 0.1791691800000000 0.1610303900000000 H
atom_frac 0.4947638800000000 0.6750067600000000 0.3351756900000000 H
atom_frac 0.9800653000000000 0.8313273699999999 0.8358544099999999 H
atom_frac 0.4793818300000000 0.3263639200000000 0.6633340000000000 H
atom_frac 0.1429009800000000 0.2207604500000000 0.2887509100000000 H
atom_frac 0.4409505900000000 0.7288166600000000 0.2295030600000000 H
atom_frac 0.9213019700000000 0.7720538600000000 0.7301875400000000 H
atom_frac 0.5336488700000001 0.2729472200000000 0.7694205400000000 H
atom_frac 0.1120260700000000 0.9904935400000000 0.3439558100000000 H
atom_frac 0.2802182999999999 0.5056260700000000 0.1418841300000000 H
atom_frac 0.7806898400000000 -0.0089505600000000 0.6411354400000000 H
atom_frac 0.6929117500000000 0.4965175900000000 0.8558995999999998 H
atom_frac 0.1442746600000000 -0.0431833300000000 0.2306423300000000 H
atom_frac 0.5092352900000000 0.4581429699999999 0.2584153600000000 H
atom_frac 1.0122385500000000 1.0443124200000000 0.7578406999999999 H
atom_frac 0.4644225400000000 0.5434699300000000 0.7386092500000000 H
atom_frac 1.0063166200000000 0.6060144200000002 0.2026055700000000 C
atom_frac 0.6611245700000000 0.0996228200000000 0.2986830100000000 C
atom_frac -0.0331718900000000 0.3957874600000000 0.7957012999999999 C
atom_frac 0.4978975100000000 0.8936508899999998 0.7026056000000001 C
atom_frac 0.9113342300000000 0.6806509900000000 0.2348584400000000 C
atom_frac 0.6187978100000000 0.1790599700000000 0.2644478400000000 C
atom_frac 0.0625579000000000 0.3209391600000000 0.7636684700000000 C
atom_frac 0.3962070900000000 0.8205613300000001 0.7354001499999999 C
atom_frac 0.9826424799999999 0.6826024200000000 0.3186198400000000 C
atom_frac 0.3768677300000000 0.1740663700000000 0.1881480100000000 C
atom_frac -0.0081426700000000 0.3187451900000000 0.6800387800000000 C
atom_frac 0.4678194900000000 0.8226997500000000 0.8193186399999999 C
atom_frac 1.1615985900000001 0.6251706500000000 0.3703952100000000 C
atom_frac 0.4270924800000000 0.1190031600000000 0.1330969400000000 C
atom_frac -0.1874309500000000 0.3756921100000000 0.6277871399999999 C
atom_frac 0.6504687600000000 0.8827429600000000 0.8709732699999999 C
atom_frac 1.0868304799999999 0.5542564800000001 0.3276009899999999 C
atom_frac 0.5873141100000000 0.0499370300000000 0.1707600200000000 C
atom_frac -0.1134101300000000 0.4468820300000000 0.6702816600000000 C
atom_frac 0.5830181100000000 0.9513632800000000 0.8274089100000001 C
atom_frac 1.1217095300000000 0.5409610400000000 0.2557640500000000 C
atom_frac 0.5523066000000000 0.0367478200000000 0.2426448400000000 C
atom_frac -0.1487572700000000 0.4604710000000001 0.7421334800000000 C
atom_frac 0.6192974100000000 0.9611189699999999 0.7554521000000000 C
atom_frac 0.7373876900000000 0.5583861000000000 0.1481491100000000 C
atom_frac 0.5599543600000000 0.0579637500000000 0.3562547599999999 C
atom_frac 0.2353614800000000 0.4438563300000001 0.8499031099999999 C
atom_frac 0.2330448000000000 0.9387061800000001 0.6478741299999999 C
atom_frac 0.9548560800000000 0.7628305100000000 0.2143066700000000 C
atom_frac 0.6208061400000000 0.2611234600000000 0.2914647300000000 C
atom_frac 0.0204181000000000 0.2387756900000000 0.7843555199999999 C
atom_frac 0.4307337100000000 0.7375570000000000 0.7146954599999999 C
atom_frac 0.4320906200000000 0.3639198000000000 0.0933266900000000 C
atom_frac 1.0108818799999999 0.8612349500000001 0.4102686700000000 C
atom_frac 0.4847099300000000 0.6401002800000001 0.9039789499999999 C
atom_frac -0.0466529800000000 0.1403144000000000 0.5892844100000000 C
atom_frac 0.8503116799999999 0.2994173800000001 0.0933301200000000 C
atom_frac 0.5896095900000000 0.7954205700000001 0.4101358099999999 C
atom_frac 0.0832954000000000 0.7075168600000001 0.9097312799999999 C
atom_frac 0.3867665399999999 0.2048031200000000 0.5956152399999999 C
atom_frac 1.1289857900000000 0.8469715800000001 1.0718506200000000 C
atom_frac 0.4169822700000000 0.3563617800000001 0.4275014600000000 C
atom_frac -0.1503868900000000 0.1560657600000000 -0.0723114000000000 C
atom_frac 0.5885807300000000 0.6480616800000000 0.5711412899999999 C
atom_frac 1.3425319300000000 0.8417260100000000 0.1792033300000000 C
atom_frac 0.2206231900000000 0.3423926199999999 0.3200700200000000 C
atom_frac -0.3643520200000000 0.1594465400000000 0.8201338300000000 C
atom_frac 0.8063600100000000 0.6568093000000000 0.6784163800000000 C
atom_frac -0.0278568500000000 0.0635488500000000 0.1831865800000000 C
atom_frac 0.6934980900000000 0.5643649799999999 0.3147404300000000 C
atom_frac 1.1885661799999998 0.9407697900000001 0.8143853799999999 C
atom_frac 0.2796520299999999 0.4369811500000000 0.6832635199999999 C
atom_frac 0.0429630900000000 0.1470651100000000 0.1984041700000000 C
atom_frac 0.6351285300000000 0.6484103400000001 0.3039634800000000 C
atom_frac 1.1228142699999997 0.8561240300000001 0.8043381899999998 C
atom_frac 0.3388854500000000 0.3530429600000001 0.6945057200000000 C
atom_frac 0.0152253400000000 0.1688900100000000 0.2693428600000000 C
atom_frac 0.5318075600000000 0.6722802600000000 0.2303765100000000 C
atom_frac 1.0173958599999999 0.8286857600000002 0.7309443200000000 C
atom_frac 0.4420440100000000 0.3294708000000000 0.7681427300000000 C
atom_frac 0.0338285600000000 0.1080829900000000 0.3215849200000000 C
atom_frac 0.2999422100000000 0.6215075799999999 0.1767442200000000 C
atom_frac 0.7908789000000001 0.8769015100000001 0.6769452899999999 C
atom_frac 0.6727195500000001 0.3804797300000001 0.8216432600000000 C
atom_frac 0.2094021000000000 0.0352701700000000 0.3192926999999999 C
atom_frac 0.4520773500000000 0.5438338900000000 0.1773292400000000 C
atom_frac 0.9493812200000000 0.9548038499999998 0.6770532799999999 C
atom_frac 0.5203838500000000 0.4583248300000000 0.8205213499999999 C
atom_frac 0.1929113200000000 0.0161342100000000 0.2429266900000000 C
atom_frac 0.4744973400000000 0.5182338100000000 0.2530718199999999 C
atom_frac 0.9736743299999999 0.9839315400000000 0.7524662899999999 C
atom_frac 0.4984603300000000 0.4834290399999999 0.7447353100000000 C
atom_frac -0.0178333700000000 0.0447208400000000 0.1102688800000000 C
atom_frac 0.7445765500000000 0.5539217700000000 0.3915306800000000 C
atom_frac 1.2401382299999999 0.9556998199999999 0.8908615800000000 C
atom_frac 0.2300667100000000 0.4471773300000000 0.6065347500000000 C
atom_frac 0.1047186800000000 0.1348744200000000 0.3980753699999999 C
atom_frac 0.2334909800000000 0.6567751600000000 0.1048330600000000 C
atom_frac 0.7247443700000000 0.8389795500000000 0.6055177199999999 C
atom_frac 0.7358061100000001 0.3460535600000000 0.8934874199999999 C
atom_frac 0.9164832700000000 0.3321193400000000 0.1555033800000000 N
atom_frac 0.5158054000000000 -0.1704823100000000 0.3498191999999999 N
atom_frac -0.0068570200000000 0.6738962400000000 0.8479542599999998 N
atom_frac 0.4505571299999999 1.1657914800000000 0.6529625700000000 N
atom_frac 0.6506822100000000 0.3729552800000001 0.1560789800000000 N
atom_frac 0.7832402100000000 0.8711447500000000 0.3491848400000000 N
atom_frac 0.2473173200000000 0.6310694800000001 0.8435742100000000 N
atom_frac 0.1749082700000000 0.1251841700000000 0.6498853999999998 N
atom_frac 0.5485153900000000 0.3160960000000000 0.0525745500000000 N
atom_frac 0.8979133500000001 0.8114573900000001 0.4495788700000000 N
atom_frac 0.3912384099999999 0.6901293500000000 0.9466565899999999 N
atom_frac 0.0771225600000000 0.1931257500000000 0.5544390700000000 N
atom_frac 1.0802903900000000 0.7949796600000000 0.1629464800000000 N
atom_frac 0.4782122500000001 0.2965468000000000 0.3396230500000000 N
atom_frac -0.1049932700000000 0.2069858200000000 0.8357738899999999 N
atom_frac 0.5511733800000000 0.7035646000000000 0.6628376200000000 N
atom_frac 0.9358419600000000 0.7992541000000001 0.0924498200000000 N
atom_frac 0.6085485899999999 0.3060946500000000 0.4104279399999999 N
atom_frac 0.0389023200000000 0.2040108200000000 0.9061836999999999 N
atom_frac 0.4042748300000000 0.6971693000000000 0.5923523599999999 N
atom_frac 1.3797185300000001 0.8746270300000000 1.1226990099999998 N
atom_frac 0.1743667800000000 0.3798217900000000 0.3743432600000000 N
atom_frac -0.3996647500000000 0.1272475300000000 -0.1228905400000000 N
atom_frac 0.8368528499999999 0.6217505700000000 0.6214951899999999 N
atom_frac 0.1118298800000000 0.1035259400000000 0.0822476400000000 O
atom_frac 0.9793462900000000 0.6109521600000000 0.4210040700000000 O
atom_frac 1.4676910000000001 0.8996426200000001 0.9210612600000001 O
atom_frac -0.0046262600000000 0.3894676000000000 0.5772015899999999 O
atom_frac 0.8590696799999999 -0.0089705500000000 0.0764278700000000 O
atom_frac 0.6578545500000000 0.5098612300000001 0.4268027900000000 O
atom_frac 0.1590249800000000 1.0024192700000001 0.9251940799999999 O
atom_frac 0.3162061700000000 0.4909428399999999 0.5710464100000000 O
atom_frac 0.0500028800000000 0.2045171400000000 0.4018990300000000 O
atom_frac 0.4559815699999999 0.7033815900000000 0.1029591600000000 O
atom_frac 0.9370094300000001 0.7907952200000000 0.6034441299999999 O
atom_frac 0.5167601700000000 0.2985692100000000 0.8958151600000001 O
atom_frac 0.1739796700000000 0.0889346300000000 0.4441575600000000 O
atom_frac -0.0221931900000000 0.6408864800000000 0.0570887400000000 O
atom_frac 0.4758850600000000 0.8542457500000001 0.5568802600000000 O
atom_frac 0.9878183400000000 0.3631135200000000 0.9418077700000002 O
