#=======================================================
# FHI-aims file: geometry_Ti4V8H32C40N8O28.in
# Created using the Atomic Simulation Environment (ASE)
# Tue Dec 21 17:32:20 2021
#=======================================================
lattice_vector 9.5819889529999998 0.0000000000000000 0.0000000000000000 
lattice_vector 0.0000000000000000 9.4319900770000000 -1.5990570000000000 
lattice_vector 0.0000000000000000 0.0000000000000000 14.9269999999999996 
atom_frac 0.1237467508902483 0.2201921315698172 0.9810390412897194 Ti
atom_frac 0.8762481402539350 0.2201900111265331 0.4810374742829780 Ti
atom_frac 0.8762564892512472 0.7798046796015541 0.0189610860554410 Ti
atom_frac 0.1237404891422642 0.7798014989366280 0.5189607453262610 Ti
atom_frac 0.2038021552288072 0.3232414342159373 0.7711604125459246 V
atom_frac 0.7961969104140323 0.3232382535510183 0.2711594018897685 V
atom_frac 0.7961969104140323 0.6767627985069211 0.2288411797609768 V
atom_frac 0.2038031988534712 0.6767627985069211 0.7288405098340009 V
atom_frac 0.9792914650629142 0.0760401563344431 0.6590475342846958 V
atom_frac 0.0207117750785812 0.0760390961128010 0.1590487605622570 V
atom_frac 0.0207117750785812 0.9239587752802051 0.3409521502862773 V
atom_frac 0.9792893778135863 0.9239598355018472 0.8409515939356922 V
atom_frac 0.3573172560304485 0.0084383040429685 0.8649617022273759 H
atom_frac 0.6426828532370550 0.0084372438213265 0.3649609187240018 H
atom_frac 0.6426838968617190 0.9915638082366057 0.1350403328537126 H
atom_frac 0.3573162124057845 0.9915638082366057 0.6350403328537126 H
atom_frac 0.6171881463240894 0.9788146430001774 0.8546580295164433 H
atom_frac 0.3828109193187430 0.9788146430001774 0.3546573595894671 H
atom_frac 0.3828130065680710 0.0211864090577549 0.1453432220612783 H
atom_frac 0.6171871026994253 0.0211853488361129 0.6453424385579041 H
atom_frac 0.7679793867531117 0.1479931582417393 0.9627768135351076 H
atom_frac 0.2320207225143918 0.1479952786850234 0.4627770406878966 H
atom_frac 0.2320238533883838 0.8520068335945510 0.0372209748313281 H
atom_frac 0.7679762558791197 0.8520057733729089 0.5372208612549301 H
atom_frac 0.6566215042473118 0.3389390758367767 0.0677639781463313 H
atom_frac 0.3433786050201917 0.3389401360584117 0.5677640917227295 H
atom_frac 0.3433859103928327 0.6610609159995205 0.9322358200010330 H
atom_frac 0.6566173297486557 0.6610619762211627 0.4322352636504477 H
atom_frac 0.5509002385509234 0.5060575722656182 0.1410902996807337 H
atom_frac 0.4491009143412441 0.5060596927088952 0.6410911967604989 H
atom_frac 0.4491009143412441 0.4939424195706791 0.8589088285396543 H
atom_frac 0.5508981513015954 0.4939445400139633 0.3589097256194194 H
atom_frac 0.4139474611644332 0.7057492581795869 0.2226926570333561 H
atom_frac 0.5860589098510545 0.7057481979579450 0.7226925434569580 H
atom_frac 0.5860578662263904 0.2942517938783453 0.7773072546904061 H
atom_frac 0.4139453739151051 0.2942528540999874 0.2773080381937802 H
atom_frac 0.1501504548854200 0.7025134617303975 0.2032845895742099 H
atom_frac 0.8498548725054036 0.7025081606221873 0.7032833517652579 H
atom_frac 0.8498506980067476 0.2974897107708259 0.7967162192293173 H
atom_frac 0.1501473240114279 0.2974865301058998 0.2967158785001374 H
atom_frac 0.0413713689239756 0.4946739725031647 0.1041670716452714 H
atom_frac 0.9586339584668481 0.4946686713949546 0.6041658338363265 H
atom_frac 0.9586287403435280 0.5053270795547746 0.8958328400784910 H
atom_frac 0.0413661508006555 0.5053270795547746 0.3958335100054669 H
atom_frac 0.4269572862238745 0.0799407117527196 0.9086206039199569 C
atom_frac 0.5730417794189648 0.0799407117527196 0.4086206039199567 C
atom_frac 0.5730438666682929 0.9200592800835707 0.0913812040083499 C
atom_frac 0.4269572862238745 0.9200592800835707 0.5913798641543907 C
atom_frac 0.5714137249433762 0.0637331035224307 0.9033672449466936 C
atom_frac 0.4285853406994632 0.0637331035224307 0.4033672449466935 C
atom_frac 0.4285884715734554 0.9362679485355017 0.0966319968500926 C
atom_frac 0.5714116376940481 0.9362679485355017 0.5966319968500926 C
atom_frac 0.6546970603671909 0.1563084765743241 0.9625990596654079 C
atom_frac 0.3453040925249766 0.1563084765743241 0.4625997295923838 C
atom_frac 0.3453061797743047 0.8436915152619733 0.0373987287010280 C
atom_frac 0.6546939294931988 0.8436915152619733 0.5373980587740519 C
atom_frac 0.5916756977918425 0.2646747907514779 0.0228445150984555 C
atom_frac 0.4083244114756610 0.2646758509731200 0.5228446286748536 C
atom_frac 0.4083285859743171 0.7353252010848121 0.9771552830489086 C
atom_frac 0.5916715232931864 0.7353262613064544 0.4771547266983234 C
atom_frac 0.4463676613466419 0.2768535567448964 0.0227282520190144 C
atom_frac 0.5536334915455186 0.2768546169665385 0.5227283655954054 C
atom_frac 0.5536345351701826 0.7231485555346850 0.9772711033541627 C
atom_frac 0.4463645304726569 0.7231496157563200 0.4772718868575367 C
atom_frac 0.3705431113952997 0.3947904916779095 0.0784452669157218 C
atom_frac 0.6294569978722038 0.3947904916779095 0.5784466067696812 C
atom_frac 0.6294580414968678 0.6052105603800229 0.9215539748810644 C
atom_frac 0.3705399805213077 0.6052105603800229 0.4215539748810643 C
atom_frac 0.4380280566578918 0.5063597354333780 0.1339966556885415 C
atom_frac 0.5619741398589326 0.5063597354333780 0.6339979955425008 C
atom_frac 0.5619730962342686 0.4936402564029123 0.8660011326778874 C
atom_frac 0.4380249257838997 0.4936423768461964 0.3660020297576594 C
atom_frac 0.3600974721349175 0.6184951375452953 0.1802900099924827 C
atom_frac 0.6399078552559061 0.6184940773236534 0.6802892264891085 C
atom_frac 0.6399047243819140 0.3815048542909948 0.8197091182279125 C
atom_frac 0.3600943412609254 0.3815059145126369 0.3197099017312794 C
atom_frac 0.2157829663696944 0.6166323281215611 0.1701514196227691 C
atom_frac 0.7842223610211221 0.6166291474566421 0.6701504089666059 C
atom_frac 0.7842192301471371 0.3833697841580133 0.8298499455313435 C
atom_frac 0.2157777482463743 0.3833697841580133 0.3298486056773839 C
atom_frac 0.1537499163510034 0.5017276270826159 0.1149709301386679 C
atom_frac 0.8462543674151561 0.5017233861960548 0.6149704758330898 C
atom_frac 0.8462491492918360 0.4982734249753165 0.8850303214390538 C
atom_frac 0.1537457418523474 0.4982734249753165 0.3850283116581182 C
atom_frac 0.3660336092228462 0.1830271221562896 0.9675387419356767 N
atom_frac 0.6339654564199932 0.1830271221562896 0.4675380720087006 N
atom_frac 0.6339696309186493 0.8169749901232847 0.0324626232184357 N
atom_frac 0.3660304783488542 0.8169760503449268 0.5324627367948267 N
atom_frac 0.2291027479542933 0.3934429499718419 0.0704038121024411 N
atom_frac 0.7708984049378742 0.3934397693069158 0.5704028014462779 N
atom_frac 0.7708994485625382 0.6065581020860975 0.9295974394752806 N
atom_frac 0.2290985734556372 0.6065581020860975 0.4295960996213212 N
atom_frac 0.9618264063135342 0.2754211973075229 0.0076381184097940 O
atom_frac 0.0381653539566571 0.2754190768642388 0.5076352115490934 O
atom_frac 0.0381757902032902 0.7245777343071325 0.9923629060151387 O
atom_frac 0.9618222318148782 0.7245787945287745 0.4923623496645533 O
atom_frac 0.0987717690598728 0.0389907110798191 0.8926273443751002 O
atom_frac 0.9012262529582955 0.0389885906365350 0.3926264472953350 O
atom_frac 0.9012272965829594 0.9610082205348361 0.1073736800498253 O
atom_frac 0.0987717690598728 0.9610071603131941 0.6073735664734343 O
atom_frac 0.3448083708096519 0.2317739927791891 0.7457526512743017 O
atom_frac 0.6551886075838596 0.2317697518926281 0.2457515270417475 O
atom_frac 0.6551896512085236 0.7682281195003853 0.2542487138798110 O
atom_frac 0.3448125453083080 0.7682270592787431 0.7542472604494604 O
atom_frac 0.0581716387624809 0.2359979157980590 0.7072274481973794 O
atom_frac 0.9418305577543508 0.2359979157980590 0.2072281181243554 O
atom_frac 0.9418284705050226 0.7640020760382313 0.2927736898039441 O
atom_frac 0.0581716387624809 0.7640031362598734 0.7927731334533591 O
atom_frac 0.2282647173492336 0.5000026464722467 0.7500001830146703 O
atom_frac 0.7717395664169260 0.4999994658073277 0.2500005122124662 O
atom_frac 0.1624527024227689 0.3304212551707053 0.8821667060380207 O
atom_frac 0.8375442759707354 0.3304212551707053 0.3821646962570853 O
atom_frac 0.8375453195953994 0.6695776764439429 0.1178343183869117 O
atom_frac 0.1624516587981049 0.6695787366655850 0.6178351018902860 O
atom_frac 0.9027708174607839 0.0000000000000000 0.7500000000000000 O
atom_frac 0.0972292918067197 0.9999989316146554 0.2499996845709732 O
atom_frac 0.1464821141920183 0.1079878150512172 0.0871888974055324 O
atom_frac 0.8535190387001491 0.1079856946079332 0.5871886702527435 O
atom_frac 0.8535179950754852 0.8920132370067151 0.9128116842452132 O
atom_frac 0.1464810705673543 0.8920111165634309 0.4128134668733523 O
