#=======================================================
# FHI-aims file: geometry_Ni2H24C36N4O8.in
# Created using the Atomic Simulation Environment (ASE)
# Tue Dec 21 18:44:11 2021
#=======================================================
lattice_vector -8.5048427269999998 -0.0215443620000000 -1.1810551819999999 
lattice_vector 0.0721100000000000 0.0068834940000000 -10.1123041730000001 
lattice_vector -3.4443414820000000 -9.6674721239999997 -2.0538053600000001 
atom_frac 0.9278856806145656 0.8765048268465064 0.8823291757462501 Ni
atom_frac 0.0721147877764494 0.1234951354308365 0.1176684448984702 Ni
atom_frac 0.8821426999860265 0.4257590830842731 0.9328855974707652 H
atom_frac 0.1178636309177037 0.5742382197369408 0.0671120082155028 H
atom_frac 0.8190464776751089 0.2113058177414260 0.6394969242446322 H
atom_frac 0.1809428162168629 0.7886939740168373 0.3605079619574952 H
atom_frac 0.7710263720101976 0.4290502508759957 0.4965653928951995 H
atom_frac 0.2289545113836056 0.5709482701462321 0.5034457175246843 H
atom_frac 0.7765335927596909 0.6475350275305728 0.5753952337591669 H
atom_frac 0.2234541047752786 0.3524647398678269 0.4246106903797298 H
atom_frac 0.0205299677881356 0.0452551244886052 0.6170640196117533 H
atom_frac 0.9794689174700294 0.9547365432942951 0.3829315298620061 H
atom_frac 0.2456840042382852 0.0489973306141067 0.3932883507641520 H
atom_frac 0.7543132309497057 0.9509976438967700 0.6067113423276140 H
atom_frac 0.4852867489362468 0.7013084398794619 0.5836947018483229 H
atom_frac 0.5147164753578364 0.2986894343715676 0.4163018767714491 H
atom_frac 0.2422911761973198 0.7124745524290218 0.7996820892097530 H
atom_frac 0.7577089252915102 0.2875219176331286 0.2003134609729358 H
atom_frac 0.4323868151920465 0.0645056991201116 0.2312371318840079 H
atom_frac 0.5676116686178220 0.9354980289073968 0.7687625646578837 H
atom_frac 0.6347927823611387 0.0515838908006430 0.0015204462672500 H
atom_frac 0.3652057176443366 0.9484218128455526 0.9984792516452430 H
atom_frac 0.8413078041434120 0.6793557848235777 0.1300009853106019 H
atom_frac 0.1586947298067543 0.3206502897970581 0.8699945662899398 H
atom_frac 0.6419210260350711 0.6717513907077690 0.3693979327689547 H
atom_frac 0.3580831123699042 0.3282556960820884 0.6305965815801144 H
atom_frac 0.8349131291705519 0.6834591002120406 0.7972494584999269 C
atom_frac 0.1650829545691863 0.3165389744943568 0.2027502393653080 C
atom_frac 0.8298053401851108 0.5498203408968294 0.7578875805796060 C
atom_frac 0.1701934214511311 0.4501760134430557 0.2421141788860197 C
atom_frac 0.8574765060702276 0.4271849600644514 0.8373912680605359 C
atom_frac 0.1425317557014907 0.5728119080944367 0.1626073674097910 C
atom_frac 0.8523357677979322 0.3047751052147021 0.7954628457826088 C
atom_frac 0.1476614136769072 0.6952232003840138 0.2045399529903875 C
atom_frac 0.8778039710794446 0.1743284756833532 0.8852798490364082 C
atom_frac 0.1222011921804267 0.8256699517147015 0.1147177600527272 C
atom_frac 0.8217784066141008 0.3065191876896591 0.6721421223839955 C
atom_frac 0.1782111974954504 0.6934771816183769 0.3278648294830618 C
atom_frac 0.7933917343305196 0.4288807501952123 0.5928984336152254 C
atom_frac 0.2065940242386616 0.5711184640561696 0.4071064600543153 C
atom_frac 0.7961858145108848 0.5502589292126245 0.6359195361286326 C
atom_frac 0.2038082522565078 0.4497389600065561 0.3640822348925711 C
atom_frac 0.1253571081721674 0.9702687050964158 0.6036229559333536 C
atom_frac 0.8746365673996338 0.0297227284795341 0.3963767425699203 C
atom_frac 0.2546708760456511 0.9713619622220907 0.4787269705391708 C
atom_frac 0.7453271841774267 0.0286313589247982 0.5212706507435882 C
atom_frac 0.3885644579239909 0.8726933787880002 0.4640133168999299 C
atom_frac 0.6114390846854719 0.1273020608221387 0.5359853280700763 C
atom_frac 0.3845267291611806 0.7788740758454719 0.5833031551212714 C
atom_frac 0.6154725310969695 0.2211220719619648 0.4166944654998234 C
atom_frac 0.2495529175122826 0.7835593104655133 0.7056774594139200 C
atom_frac 0.7504491310401421 0.2164387005529989 0.2943191219234293 C
atom_frac 0.5180263721162178 0.8695233985756801 0.3262564164607583 C
atom_frac 0.4819729286309311 0.1304776882784965 0.6737412075868292 C
atom_frac 0.5200732388801442 0.9760784668444062 0.2174998962681371 C
atom_frac 0.4799295353788438 0.0239255407951475 0.7825008253079703 C
atom_frac 0.6350341724986138 0.9710693462457982 0.0863962091858852 C
atom_frac 0.3649654870529205 0.0289342450142200 0.9136034846384362 C
atom_frac 0.7492806103539422 0.7628345511202926 0.1587021068866292 C
atom_frac 0.2507261978497368 0.2371698274937090 0.8412944683775336 C
atom_frac 0.6369121826032326 0.7605928053916106 0.2927666749989087 C
atom_frac 0.3630906777601127 0.2394118223974858 0.7072309436371640 C
atom_frac 0.1201025798048292 0.8772418057458751 0.7156794316555235 N
atom_frac 0.8798951782984757 0.1227559256605915 0.2843161246476029 N
atom_frac 0.7509698623252632 0.8677633075931225 0.0560698877642025 N
atom_frac 0.2490318222964164 0.1322414569634631 0.9439277335894475 N
atom_frac 0.7654302060184862 0.7861643781170784 0.7461765350662193 O
atom_frac 0.2345685637155625 0.2138329640321501 0.2538252250847037 O
atom_frac 0.9167900270661774 0.6861770101561291 0.8802975100372026 O
atom_frac 0.0832075669262053 0.3138204687605892 0.1197042528312977 O
atom_frac 0.8737647367396448 0.1769807091293600 0.0054206043923486 O
atom_frac 0.1262454478022547 0.8230147365578517 0.9945790601767330 O
atom_frac 0.8987697149957867 0.0673077808580870 0.8281927053851633 O
atom_frac 0.1012355667596481 0.9326952179268916 0.1718018035051401 O
