#=======================================================
# FHI-aims file: geometry_K2Cr2H52C32N4O16.in
# Created using the Atomic Simulation Environment (ASE)
# Tue Dec 21 17:39:34 2021
#=======================================================
lattice_vector 7.8543706530000001 0.0000000000000000 0.0000000000000000 
lattice_vector -2.4218577649999999 7.4398055200000002 0.0000000000000000 
lattice_vector 0.0000000000000000 0.0000000000000000 19.7070000000000007 
atom_frac 0.5000058455117155 0.5000009731437203 0.0000000000000000 K
atom_frac 0.5000026280387999 0.9999992580451220 0.5000005074339100 K
atom_frac 0.9999994035283777 0.9999992580451220 0.9999979702643742 Cr
atom_frac 0.0000001577867579 0.5000009731437203 0.5000000000000000 Cr
atom_frac 0.3744123715771934 0.0102126325474146 0.9150900695184419 H
atom_frac 0.6255848615304982 0.4897708670212637 0.4150880397828161 H
atom_frac 0.6255865876814111 0.9897893137400187 0.0849094230476481 H
atom_frac 0.3744183615273258 0.5102283910238583 0.5849124676510868 H
atom_frac 0.2921868355049142 0.7790687517864043 0.8947272542751321 H
atom_frac 0.7077975967745329 0.7209113175850844 0.3947262394073193 H
atom_frac 0.7078112650305568 0.2209345386221884 0.1052727457248679 H
atom_frac 0.2922035242001043 0.2790852522177190 0.6052727457248679 H
atom_frac 0.9993418652758023 0.0867563000490890 0.8438189475820792 H
atom_frac 0.0006599268187841 0.4132419848523128 0.3438179327142663 H
atom_frac 0.0006562650760955 0.9132429579960331 0.1561810524179208 H
atom_frac 0.9993382035331136 0.5867572731928092 0.6561815598518308 H
atom_frac 0.2125736724127804 0.0699225266845431 0.8195301162023655 H
atom_frac 0.7874260474150391 0.4300690376110765 0.3195296087684554 H
atom_frac 0.7874240434857639 0.9300753872394267 0.1804708986654475 H
atom_frac 0.2125733561133387 0.5699302204340384 0.6804703912315446 H
atom_frac 0.9436994466149996 0.5930262542669240 0.7787791140204021 H
atom_frac 0.0563005589699087 0.9069712886795995 0.2787801288882150 H
atom_frac 0.0562990981902516 0.4069743478993502 0.2212213934135079 H
atom_frac 0.9436971569286354 0.0930266252443630 0.7212203785456950 H
atom_frac 0.0318560733157582 0.8276412580204138 0.7645491449738701 H
atom_frac 0.9681434879993772 0.6723589731684285 0.2645496524077728 H
atom_frac 0.9681428859428465 0.1723606882670268 0.2354513624600401 H
atom_frac 0.0318546423525206 0.3276402848766935 0.7354503475922272 H
atom_frac 0.1684536884822307 0.7070843432477218 0.8008027604404546 H
atom_frac 0.8315471460093915 0.7929158879411133 0.3008037753082675 H
atom_frac 0.8315478171293406 0.2929176030397116 0.1991967321256425 H
atom_frac 0.1684522575189931 0.2070833701040087 0.6991967321256425 H
atom_frac 0.7750379427390612 0.8758091837863020 0.8295965900441474 H
atom_frac 0.2249629215689808 0.6241870150390696 0.3296001420814960 H
atom_frac 0.2249606318826167 0.1241873860165086 0.1704044248236656 H
atom_frac 0.7750381695892371 0.3758135871272045 0.6703998579185040 H
atom_frac 0.6850762734559552 0.6411619211250539 0.8424098036230774 H
atom_frac 0.3149199125995138 0.8588356218214699 0.3424148779621419 H
atom_frac 0.3149239887955558 0.3588359927989089 0.1575901963769226 H
atom_frac 0.6850782177523838 0.1411636362236521 0.6575856294717610 H
atom_frac 0.7234780833591612 0.7913284808552346 0.9127974831278252 H
atom_frac 0.2765146976202075 0.7086704062124483 0.4128010351651668 H
atom_frac 0.2765200469927365 0.2086707771898872 0.0872030243060848 H
atom_frac 0.7234821595552104 0.2913288518326738 0.5871989648348332 H
atom_frac 0.9203735329614630 0.5973946480256913 0.9666078043334849 H
atom_frac 0.0796230675473524 0.9026042390419917 0.4666088192012978 H
atom_frac 0.0796267292900410 0.4026032658982714 0.0333932105343280 H
atom_frac 0.9203729607213588 0.0973923307608189 0.5333911807987022 H
atom_frac 0.8460391328688813 0.4621142301042269 0.8938580199928978 H
atom_frac 0.1539554644365849 0.0378813665548634 0.3938580199928978 H
atom_frac 0.1539606851128497 0.5378863720620473 0.1061419800071022 H
atom_frac 0.8460426659153127 0.9621178914902586 0.6061419800071022 H
atom_frac 0.0771504611661626 0.5422937453343550 0.9119089663571316 H
atom_frac 0.9228414909064994 0.9577024534910166 0.4119094737910416 H
atom_frac 0.9228476691857351 0.4577055127107669 0.0880915410767713 H
atom_frac 0.0771541229088584 0.0422927721906348 0.5880910336428684 H
atom_frac 0.2815412615351178 0.8488770281726374 0.0003541888669005 C
atom_frac 0.7184583892292834 0.6511111059257928 0.5003521591312747 C
atom_frac 0.7184593853533271 0.1511262622359482 0.9996463185670095 C
atom_frac 0.2815439751054214 0.3488894962404885 0.4996468260009124 C
atom_frac 0.2650376296390177 0.8852476025475440 0.9250007611508623 C
atom_frac 0.7349556850593897 0.6147364991874156 0.4249997462830493 C
atom_frac 0.7349626027960666 0.1147543437398895 0.0749997462830478 C
atom_frac 0.2650500843514080 0.3852627588577064 0.5749997462830478 C
atom_frac 0.1263046506746335 0.0746094771574093 0.8628994773430777 C
atom_frac 0.8736996877729196 0.4253888077439996 0.3628989699091676 C
atom_frac 0.8736943085839712 0.9253924691300242 0.1371010300908324 C
atom_frac 0.1263014033852983 0.5746117944222817 0.6371005226569224 C
atom_frac 0.2146734837313033 0.2420600908395798 0.9048794844471503 C
atom_frac 0.7853413353157778 0.2579556676368640 0.4048830364844989 C
atom_frac 0.7853284363336214 0.7579431995690129 0.0951200081189398 C
atom_frac 0.2146572094894736 0.7420449345294173 0.5951164560815982 C
atom_frac 0.9633600540482232 0.7440597721430748 0.8707601359922847 C
atom_frac 0.0366348588307588 0.7559377708034489 0.3707611508600976 C
atom_frac 0.0366406226566411 0.2559394859020472 0.1292403714416182 C
atom_frac 0.9633645446976189 0.2440614872416731 0.6292383417059924 C
atom_frac 0.0328441082484616 0.7191585835969505 0.7997295377277140 C
atom_frac 0.9671558973364468 0.7808389593495730 0.2997305525955269 C
atom_frac 0.9671561241866228 0.2808433626904829 0.2002709697061960 C
atom_frac 0.0328405453856107 0.2191589545743966 0.7002694474044732 C
atom_frac 0.7764727789677366 0.7655011928322537 0.8638118435073850 C
atom_frac 0.2235246802642052 0.7344963501142701 0.3638153955447336 C
atom_frac 0.2235295853669612 0.2344994093340205 0.1361886639265251 C
atom_frac 0.7764738645410459 0.2655042520520112 0.6361846044552664 C
atom_frac 0.9526848569822304 0.5778497822883963 0.9137199979702615 C
atom_frac 0.0473096414433982 0.9221464165369753 0.4137215202719844 C
atom_frac 0.0473145465461542 0.4221494757567257 0.0862800020297385 C
atom_frac 0.9526893476316259 0.0778514973869875 0.5862789871619256 C
atom_frac 0.0895126619358564 0.9111582260822360 0.9060349114527851 N
atom_frac 0.9104865147423522 0.5888366286219835 0.4060349114527854 N
atom_frac 0.9104871560458817 0.0888423760840453 0.0939645811133119 N
atom_frac 0.0895154351389991 0.4111626294231385 0.5939640736794018 N
atom_frac 0.1745974856503594 0.8977667469995936 0.0408083422134240 O
atom_frac 0.8254020458483564 0.6022375165527194 0.5408073273456111 O
atom_frac 0.8254048488679188 0.1022378875301584 0.9591926726543889 O
atom_frac 0.1746044928363020 0.3977724944616554 0.4591926726543890 O
atom_frac 0.1875193438439098 0.2215474578695691 0.9702633581975917 O
atom_frac 0.8124862379637036 0.2784548593953033 0.4702638656315017 O
atom_frac 0.8124847081206281 0.7784544884178644 0.0297366418024083 O
atom_frac 0.1875135502016079 0.7215497751344415 0.5297356269345883 O
atom_frac 0.3981525720643191 0.7831293418003185 0.0198452326584473 O
atom_frac 0.6018406531848297 0.7168668570250460 0.5198442177906344 O
atom_frac 0.6018518943535724 0.2168739486082671 0.9801537524737399 O
atom_frac 0.3981591647969083 0.2831337451412281 0.4801547673415527 O
atom_frac 0.3043319618494422 0.3846700014276720 0.8778129598619772 O
atom_frac 0.6956622210026708 0.1153242511102661 0.3778144821636999 O
atom_frac 0.6956665829558091 0.6153306007386092 0.1221845029684872 O
atom_frac 0.3043346063563205 0.8846790392983266 0.6221860252702101 O
