#=======================================================
# FHI-aims file: geometry_Cr4H32C68O16F24.in
# Created using the Atomic Simulation Environment (ASE)
# Tue Dec 21 17:39:34 2021
#=======================================================
lattice_vector 6.9428123929999996 0.0000000000000000 0.0000000000000000 
lattice_vector 0.0000000000000000 12.4328410120000008 -0.0644430000000000 
lattice_vector 0.0000000000000000 0.0000000000000000 20.5779999999999994 
atom_frac 0.3933578851638728 0.5360898601990414 0.0163590844037742 Cr
atom_frac 0.3933665271948854 0.9639124306691471 0.4836425993181876 Cr
atom_frac 0.6066360088091187 0.4639205145817371 0.9836478972553806 Cr
atom_frac 0.6066489718556339 0.0360834663265592 0.5163546178841685 Cr
atom_frac 0.9672276333968881 0.7115726800866469 0.8900906734484835 H
atom_frac 0.9672074686578682 0.7884296107815487 0.6099056647588483 H
atom_frac 0.0327547378680819 0.2884320644443861 0.1099167765345967 H
atom_frac 0.0327331327905611 0.2115719164639174 0.3900823369138279 H
atom_frac 0.0927995693286476 0.8842419837420155 0.8486190692078069 H
atom_frac 0.0927866062821323 0.6157635244117472 0.6513826245895444 H
atom_frac 0.9072058473523582 0.1157571305392651 0.1513864193198273 H
atom_frac 0.9071928843058430 0.3842476546904336 0.3486136685592029 H
atom_frac 0.5792350091520007 0.0443808458153256 0.9173131516593857 H
atom_frac 0.5792306881364979 0.4556126789148749 0.5826903026468742 H
atom_frac 0.4207747285445080 0.9556327462510340 0.0826855788252843 H
atom_frac 0.4207689671904973 0.5443655230101996 0.4173165782583014 H
atom_frac 0.4519479747376777 0.8714251223467642 0.9554639541821076 H
atom_frac 0.4519364520296634 0.6285634950577474 0.5445362288517828 H
atom_frac 0.5480415982198039 0.1285949042907291 0.0445347964533553 H
atom_frac 0.5480300755117895 0.3713978161180692 0.4554662255546731 H
atom_frac 0.4556237185941185 0.1363051291627002 0.7122142050461022 H
atom_frac 0.4556294799481293 0.3636964387814245 0.7877819851105273 H
atom_frac 0.5443687350403650 0.8636867462260440 0.2877689068416274 H
atom_frac 0.5443701753788730 0.6363139359993610 0.2122274263279991 H
atom_frac 0.8086478046937486 0.9802843926208524 0.7514249425169410 H
atom_frac 0.8086578870632621 0.5197170939259479 0.7485767386861610 H
atom_frac 0.1913532909717475 0.0197139173390397 0.2485785996683418 H
atom_frac 0.1913518506332466 0.4802876506050850 0.2514229360029105 H
atom_frac 0.9600403442732031 0.9624638478406029 0.6431142024368910 H
atom_frac 0.9600547476582264 0.5375392473489811 0.8568884557156624 H
atom_frac 0.0399247429297489 0.0375320491551037 0.3568883602800881 H
atom_frac 0.0399362656377633 0.4624703231104094 0.1431122059982570 H
atom_frac 0.3012770447475930 0.1610235342081268 0.8187548274669539 H
atom_frac 0.3012799254245948 0.3389764250932075 0.6812442733872217 H
atom_frac 0.6987413349799282 0.8389739714303702 0.1812355913908519 H
atom_frac 0.6987384543029266 0.6610275151164302 0.3187626881211330 H
atom_frac 0.6279314135573557 0.6782649268868469 0.9516716603500515 C
atom_frac 0.6279098084798278 0.8217301250888056 0.5483261130552606 C
atom_frac 0.3720653610926377 0.3217462522153269 0.0483328940485706 C
atom_frac 0.3720495173691205 0.1782504898004404 0.4516637669508299 C
atom_frac 0.7005979313086712 0.7801965770042116 0.9249552049767686 C
atom_frac 0.7005835279236550 0.7198000836142315 0.5750430594221215 C
atom_frac 0.2993902013103096 0.2198146020979621 0.0750493494218603 C
atom_frac 0.2993757979252933 0.2801821399178053 0.4249507132686717 C
atom_frac 0.8811371608093523 0.7844884359565257 0.8944404115209609 C
atom_frac 0.8811198767473343 0.7155098333047007 0.6055573719597476 C
atom_frac 0.1188538524866374 0.2155171128959027 0.1055636392898407 C
atom_frac 0.1188408894401221 0.2844820420840435 0.3944369169131150 C
atom_frac 0.9518707442913339 0.8819086473813229 0.8718564894043723 C
atom_frac 0.9518606619218204 0.6180912305226869 0.6281442148492857 C
atom_frac 0.0481274706971604 0.1180936841855242 0.1281470653751597 C
atom_frac 0.0481159479891460 0.3819062751158100 0.3718539793025215 C
atom_frac 0.8455579191393525 0.9772134935429051 0.8797679351328824 C
atom_frac 0.8455463964313381 0.5227871886825000 0.6202327716396283 C
atom_frac 0.1544532588956571 0.0227928596309184 0.1202327165056474 C
atom_frac 0.1544431765261436 0.4772079039918182 0.3797668728232537 C
atom_frac 0.6647925564939001 0.9723071330464494 0.9098458736794087 C
atom_frac 0.6647839144628874 0.5276879189292103 0.5901562733287733 C
atom_frac 0.3352157408641077 0.0277032417343364 0.0901552765092362 C
atom_frac 0.3352027778175923 0.4722943046028264 0.4098462465677670 C
atom_frac 0.5922383851457198 0.8747003190584977 0.9318033002556663 C
atom_frac 0.5922254220992045 0.6252931242743713 0.5681964119354461 C
atom_frac 0.4077583895042736 0.1253132730078548 0.0681978600083823 C
atom_frac 0.4077425457807564 0.3746818603651292 0.4318026836003241 C
atom_frac 0.9405352802826316 0.0835706013611173 0.8591469307154967 C
atom_frac 0.9405352802826316 0.4164301622616123 0.6408546024369031 C
atom_frac 0.0594830994448827 0.9164333388485206 0.1408522554988565 C
atom_frac 0.0594787784293800 0.5835705606624515 0.3591470034814250 C
atom_frac 0.0780188156237855 0.1156718724716228 0.9161771912954464 C
atom_frac 0.0780173752852846 0.3843329127580759 0.5838233825394568 C
atom_frac 0.9220096464732492 0.8843304590952314 0.0838195601018299 C
atom_frac 0.9220053254577394 0.6156702231301736 0.4161796888030480 C
atom_frac 0.7932462650946377 0.1771107663867539 0.8505697127572276 C
atom_frac 0.7932491457716395 0.3228908015573708 0.6494313369581448 C
atom_frac 0.2067764356483863 0.8228947824656672 0.1494309363624495 C
atom_frac 0.2067721146328836 0.6771075084025214 0.3505702614036323 C
atom_frac 0.3173065719334645 0.0328307906138292 0.6080583980289376 C
atom_frac 0.3173252963339834 0.4671675600447217 0.8919392399199141 C
atom_frac 0.6826642766234983 0.9671602804535269 0.3919320006780680 C
atom_frac 0.6826772396700135 0.5328371844863113 0.1080667521955405 C
atom_frac 0.2200505952804335 0.0464994283641218 0.6712322170600658 C
atom_frac 0.2200621179884479 0.4535013352586078 0.8287664003570825 C
atom_frac 0.7799346566615455 0.9534932513460177 0.3287611024198895 C
atom_frac 0.7799418583540572 0.5465058222366039 0.1712386274031701 C
atom_frac 0.3135861775834670 0.1025397170903659 0.7212201364072541 C
atom_frac 0.3135977002914814 0.3974610465323636 0.7787770231422756 C
atom_frac 0.6864048357125156 0.8974561799053405 0.2787702774128533 C
atom_frac 0.6864077163895246 0.6025461109628480 0.2212284905738571 C
atom_frac 0.0448823880527414 0.0705180737977571 0.7936123236577759 C
atom_frac 0.0448910300837539 0.4294834941463677 0.7063887260575967 C
atom_frac 0.9551244689667655 0.9294818448049185 0.2063853920947025 C
atom_frac 0.9551259093052664 0.5705204460632700 0.2936143478037536 C
atom_frac 0.9507789677070164 0.0147649278087627 0.7431855134727741 C
atom_frac 0.9507876097380219 0.4852366401353622 0.7568160221984783 C
atom_frac 0.0492206876199859 0.9852333821511297 0.2568155989331302 C
atom_frac 0.0492235682969877 0.5147689087170662 0.2431851128770789 C
atom_frac 0.0361380930086739 0.0034513430967706 0.6823939359949094 C
atom_frac 0.0361510560551892 0.4965494205259589 0.8176056533339989 C
atom_frac 0.9638457185948042 0.9965437495775475 0.3176037646444740 C
atom_frac 0.9638500396103069 0.5034585412906409 0.1823959752539821 C
atom_frac 0.2260582471711885 0.1153863383771565 0.7815436797455534 C
atom_frac 0.2260654488637002 0.3846160338883635 0.7184564005769190 C
atom_frac 0.7739471695098104 0.8846127759041309 0.2184501458410750 C
atom_frac 0.7739500501868193 0.6153903192854600 0.2815500825321067 C
atom_frac 0.7255734009288517 0.5909445791922110 0.9440879697500649 O
atom_frac 0.7255589975438355 0.9090472554978746 0.5559112514474691 O
atom_frac 0.2744176123671309 0.4090641869457841 0.0559190068713846 O
atom_frac 0.2744104106746263 0.0909301421058046 0.4440761887038462 O
atom_frac 0.2324792762119472 0.9828373087217912 0.5611962768337975 O
atom_frac 0.2324980006124733 0.5171625691822186 0.9388015116846021 O
atom_frac 0.7674858109910048 0.0171545666669530 0.4387946103479337 O
atom_frac 0.7674973336990192 0.4828445883129930 0.0612025441638977 O
atom_frac 0.4678277067193690 0.6772876763945206 0.9831935294843958 O
atom_frac 0.4678046613033402 0.8227097885453105 0.5168057093450855 O
atom_frac 0.5321705082691253 0.3227267199932271 0.0168120069013753 O
atom_frac 0.5321503435301054 0.1772732393081142 0.4831866079969274 O
atom_frac 0.4893780513824098 0.0697555771173271 0.6005800009066107 O
atom_frac 0.4893967757829358 0.4302443821840144 0.8994205578151979 O
atom_frac 0.5105956778515548 0.9302322766644552 0.3994113596367511 O
atom_frac 0.5106028795440594 0.5697643839539808 0.1005888485856303 O
atom_frac 0.9860831047231784 0.1106673847652360 0.9741890241168463 F
atom_frac 0.9860816643846775 0.3893365961430675 0.5258120331550771 F
atom_frac 0.0139539994048619 0.8893325338374396 0.0258116073708834 F
atom_frac 0.0139511187278600 0.6106633224596081 0.4741890842885255 F
atom_frac 0.2312535481469666 0.0472940979002701 0.9193214974026134 F
atom_frac 0.2312463464544621 0.4527131002936073 0.5806795699447065 F
atom_frac 0.7687777946270629 0.9527082336665842 0.0806723382594114 F
atom_frac 0.7687705929345583 0.5472940572016043 0.4193259437714190 F
atom_frac 0.1508826597498398 0.2173364878865556 0.9112540487554101 F
atom_frac 0.1508855404268417 0.2826691016645313 0.5887455556865859 F
atom_frac 0.8491429216701860 0.7826666480016939 0.0887417332489662 F
atom_frac 0.8491472426856888 0.7173340342237111 0.4112580016117917 F
atom_frac 0.7118052051907142 0.2109654581336997 0.9072808459042890 F
atom_frac 0.7118066455292151 0.2890345011676416 0.5927206847292653 F
atom_frac 0.2882275779218233 0.7890416993615119 0.0927217520765851 F
atom_frac 0.2882174955523098 0.7109613958280718 0.4072799341642224 F
atom_frac 0.8759288967870589 0.2645268283271420 0.8230793518513907 F
atom_frac 0.8759317774640607 0.2354747396169827 0.6769216978639889 F
atom_frac 0.1240966846329670 0.7354771118824956 0.1769193484070897 F
atom_frac 0.1240894829404624 0.7645227660215141 0.3230803839348226 F
atom_frac 0.6466226862944424 0.1459336605566506 0.8105464283646242 F
atom_frac 0.6466241266329433 0.3540671030660790 0.6894555907436555 F
atom_frac 0.3533928127560770 0.8540751055813445 0.1894561746539480 F
atom_frac 0.3533913724175690 0.6459279896082393 0.3105459975427323 F
