#=======================================================
# FHI-aims file: geometry_K2Cr2H12C28N4O16.in
# Created using the Atomic Simulation Environment (ASE)
# Tue Dec 21 17:39:34 2021
#=======================================================
lattice_vector 6.7050398319999998 0.0057378920000000 -1.4907580949999999 
lattice_vector -0.3275251400000000 6.6996595609999998 -1.4963551930000001 
lattice_vector -0.0316303610000000 -0.0462532780000000 15.6571827189999997 
atom_frac 0.1257915497808995 0.3745481978831863 0.2498675516702207 K
atom_frac 0.8748432569399398 0.6257241205318564 0.7501812692029901 K
atom_frac 0.6246971766572287 0.8744254898804300 0.2492264135721101 Cr
atom_frac 0.3749185992375672 0.1251581716681827 0.7499659566885055 Cr
atom_frac 0.6515249143804526 0.3196322115350726 0.5527258329358062 H
atom_frac 0.2349511284164905 0.1505669301767724 0.0528675509084948 H
atom_frac 0.9009374944000043 0.7339887273517365 0.5526976252337406 H
atom_frac 0.8188439874548478 0.4020104856632685 0.0525764306054981 H
atom_frac 0.3491564540626300 0.6807733941851738 0.4469607808477818 H
atom_frac 0.7656493330317601 0.8486915195004556 0.9475537310811647 H
atom_frac 0.0990344184767764 0.2657192818906680 0.4470380728118785 H
atom_frac 0.1810676073571145 0.5990086283099317 0.9476697014608888 H
atom_frac 0.8187654837909760 0.0699445747000382 0.6391509494424382 H
atom_frac 0.5702192319109328 0.3189512657987166 0.1387307894256011 H
atom_frac 0.1817827893884072 0.9303208047875771 0.3609630566138833 H
atom_frac 0.4299763776707267 0.6810985983415988 0.8612555931841470 H
atom_frac 0.6452532824160642 0.1204165008510856 0.4255256216926853 C
atom_frac 0.3055901920073936 0.1442473219592628 0.9253699430993834 C
atom_frac 0.7812077556235194 0.8059228708675407 0.4255126083741700 C
atom_frac 0.6200026338425246 0.2816809599509824 0.9252110659049109 C
atom_frac 0.3555402136294389 0.8794164032120761 0.5744579925229587 C
atom_frac 0.6948430758827016 0.8553378863357964 0.0747964847273508 C
atom_frac 0.2187314971659049 0.1944048625205995 0.5744771991894595 C
atom_frac 0.3794749908980037 0.7186495062058782 0.0749011080816047 C
atom_frac 0.5337772725689333 0.2348444882716123 0.3604258608244847 C
atom_frac 0.1250375602676357 0.0327077445998896 0.8602245627680601 C
atom_frac 0.8267849624050215 0.6257145715957083 0.3603769417102995 C
atom_frac 0.7351163486789146 0.3280490345548158 0.8599362200478068 C
atom_frac 0.4672342675893547 0.7641577307079149 0.6396862599765214 C
atom_frac 0.8745251678987599 0.9662732084777093 0.1396543328344322 C
atom_frac 0.1719368569882533 0.3750550351939026 0.6396867169981491 C
atom_frac 0.2645390580159912 0.6728088218966661 0.1398377189572813 C
atom_frac 0.6910592719136801 0.1736163343520332 0.5190023041224663 C
atom_frac 0.3464194978691496 0.1903044931868010 0.0188750934730422 C
atom_frac 0.8280779247428284 0.8463152037678798 0.5189938806687877 C
atom_frac 0.6732149735211975 0.3286214740349109 0.0186978159423390 C
atom_frac 0.3097151297447526 0.8265312860108550 0.4809463397059517 C
atom_frac 0.6537822272081473 0.8092608877468309 0.9814174845646094 C
atom_frac 0.1720877159136904 0.1538554757537796 0.4809762861440916 C
atom_frac 0.3269020481403260 0.6720242434731745 0.9815385766962449 C
atom_frac 0.7825824891055290 0.0332863313453728 0.5657428615593005 C
atom_frac 0.5332623652304705 0.2825386298104320 0.0653453020270760 C
atom_frac 0.2179576891572097 0.9669670391942233 0.4343602844836099 C
atom_frac 0.4667840115180155 0.7174486476408717 0.9346374961593327 C
atom_frac 0.6916007350665154 0.9413838893371251 0.3820249257528304 N
atom_frac 0.4411818539969801 0.1915435407835703 0.8822719157123373 N
atom_frac 0.3085010281515821 0.0584417022931447 0.6174622933929967 N
atom_frac 0.5591481223241175 0.8088114935334972 0.1186940142117976 N
atom_frac 0.5123424087064664 0.1387940426254275 0.2759285535058851 O
atom_frac 0.1328708183418783 0.0116193631161607 0.7754731588867969 O
atom_frac 0.7606654162300329 0.6354196699142277 0.2758741292838280 O
atom_frac 0.6424442368715546 0.2642031241249825 0.7752372110190747 O
atom_frac 0.4886951426033477 0.8571538192495538 0.7243348316229756 O
atom_frac 0.8648933888518116 0.9865065641003098 0.2244338016569642 O
atom_frac 0.2353578045507021 0.3673370158500121 0.7243466725237298 O
atom_frac 0.3590297258748193 0.7372784096624797 0.2245120920070107 O
atom_frac 0.4607626922910342 0.3972753859392668 0.3842677771721412 O
atom_frac 0.9883628566893138 0.9600156372729743 0.8853223828563017 O
atom_frac 0.9250923821070813 0.4879921456715763 0.3841743847868955 O
atom_frac 0.8968393480761988 0.4259027651825918 0.8848994471808851 O
atom_frac 0.5400179867419582 0.6021059224260485 0.6145135227465701 O
atom_frac 0.0123886121592420 0.0402819054614412 0.1158001726634481 O
atom_frac 0.0736528883279490 0.5115644692996923 0.6144515882803958 O
atom_frac 0.1025495997594774 0.5753820640604488 0.1159348152266020 O
