#=======================================================
# FHI-aims file: ./geometry.in
# Created using the Atomic Simulation Environment (ASE)
# Mon Feb  7 19:01:10 2022
#=======================================================
lattice_vector 7.5651473500000002 -0.0303127200000000 -1.9477978700000000 
lattice_vector -1.0278104400000001 7.2587807900000003 -2.2969114700000000 
lattice_vector 0.0547769200000000 0.1177071300000000 7.7082739499999997 
atom_frac -0.0000001500000000 -0.0000001400000000 0.0000000600000000 Mn
    initial_moment         2.000000
atom_frac 0.1723199900000000 0.6304131900000000 0.5843974700000000 H
atom_frac 0.8276797200000000 0.3695866800000000 0.4156027899999998 H
atom_frac 0.4047094400000000 0.6970984700000001 0.6619266099999999 H
atom_frac 0.5952903000000000 0.3029013300000000 0.3380736200000000 H
atom_frac 0.4588123500000000 0.4391633700000002 0.7893625399999997 H
atom_frac 0.5411873400000000 0.5608363800000002 0.2106376000000001 H
atom_frac 0.3863052800000000 0.9448926100000002 0.2579867900000000 H
atom_frac 0.6136946800000000 0.0551074200000000 0.7420131499999998 H
atom_frac 0.0837740200000000 0.3842359600000000 0.3320508200000000 H
atom_frac 0.9162255200000000 0.6157636900000002 0.6679494699999999 H
atom_frac 0.8073399900000000 0.2895963100000001 0.8070552600000001 H
atom_frac 0.1926598200000000 0.7104037300000000 0.1929452899999999 H
atom_frac 0.3435920200000001 0.1903525700000000 0.9130953899999997 H
atom_frac 0.6564076400000000 0.8096469300000000 0.0869043600000000 H
atom_frac 0.2755026700000000 0.7503240500000002 0.8857487499999998 C
atom_frac 0.7244973000000000 0.2496759700000000 0.1142515100000000 C
atom_frac 0.2919470100000000 0.6339815700000002 0.6962005199999999 C
atom_frac 0.7080527200000000 0.3660182500000000 0.3037997100000000 C
atom_frac 0.3262492300000001 0.4417455200000002 0.6994212900000000 C
atom_frac 0.6737504700000000 0.5582542600000000 0.3005788300000000 C
atom_frac 0.3371643400000000 0.0707310000000000 0.3231701900000000 C
atom_frac 0.6628355700000000 0.9292689800000002 0.6768298099999998 C
atom_frac 0.1807530500000000 0.2905704800000001 0.3546954900000000 C
atom_frac 0.8192466100000000 0.7094292700000000 0.6453046899999998 C
atom_frac 0.9473092100000000 0.2911096400000000 0.8074061399999997 C
atom_frac 0.0526905500000000 0.7088902700000000 0.1925942200000000 C
atom_frac 0.2165515100000000 0.2370975800000000 0.8662350999999998 C
atom_frac 0.7834481700000000 0.7629020100000000 0.1337648200000000 C
atom_frac 0.4132929400000000 0.1802541400000000 0.4948304000000000 N
atom_frac 0.5867069800000000 0.8197458500000002 0.5051696099999999 N
atom_frac 0.3148579800000000 0.3205800500000000 0.5123851000000000 N
atom_frac 0.6851417800000001 0.6794198100000002 0.4876149900000000 N
atom_frac 0.1904125900000000 0.1315292500000000 0.2320536000000000 N
atom_frac 0.8095871200000001 0.8684705600000003 0.7679465400000000 N
atom_frac 0.0272511100000000 0.3946390900000000 0.7321412400000000 N
atom_frac 0.9727486300000000 0.6053608199999998 0.2678590899999999 N
atom_frac 0.1975482400000000 0.3608500800000000 0.7724516699999998 N
atom_frac 0.8024514300000000 0.6391496100000001 0.2275483699999999 N
atom_frac 0.0584360000000000 0.1895973900000000 0.8907329899999999 N
atom_frac 0.9415637200000000 0.8104023299999999 0.1092671300000000 N
atom_frac 0.1587392100000000 0.8595364000000002 0.8782683099999999 O
atom_frac 0.8412606200000000 0.1404634900000000 0.1217319800000000 O
atom_frac 0.3744282700000000 0.7289842200000000 0.0306725700000000 O
atom_frac 0.6255712600000000 0.2710153100000001 0.9693276399999998 O
