#=======================================================
# FHI-aims file: geometry_Cu4H16C40N12O12.in
# Created using the Atomic Simulation Environment (ASE)
# Wed Dec  8 17:56:10 2021
#=======================================================
lattice_vector 7.0396323199999999 0.0000067960000000 -0.6675736560000000 
lattice_vector 0.0000074110000000 8.6693209469999992 -0.0000048160000000 
lattice_vector -0.0761631810000000 -0.0000098730000000 15.6063417070000003 
atom_frac 0.6155153801151486 0.8900548314393363 0.5243814529231443 Cu
atom_frac 0.8844938983867295 0.3900569266552409 0.4756199014046061 Cu
atom_frac 0.3844865360736450 0.1099442607608552 0.4756190625206997 Cu
atom_frac 0.1155108532331610 0.6099479330065379 0.5243800945636822 Cu
atom_frac 0.5586339542152673 0.5462229635533261 0.6053014934021307 H
atom_frac 0.9413703615271773 0.0462178643245679 0.3946994364295549 H
atom_frac 0.4413708112761726 0.4537818961099019 0.3946997846898341 H
atom_frac 0.0586329827850633 0.9537800743824221 0.6053017808682030 H
atom_frac 0.4454763625429763 0.5014088694612082 0.7538224472883854 H
atom_frac 0.0545212546755920 0.0014040384535363 0.2461766525560662 H
atom_frac 0.5545227043322783 0.4985948367118668 0.2461773055100807 H
atom_frac 0.9454763910204634 0.9985927467632931 0.7538230394481928 H
atom_frac 0.5131549398873007 0.1063524122609110 0.6768741470507535 H
atom_frac 0.9868435787212635 0.6063469694787784 0.3231278534451292 H
atom_frac 0.4868413123593386 0.8936501404242778 0.3231280484100125 H
atom_frac 0.0131526388525600 0.3936498157383782 0.6768711367049106 H
atom_frac 0.3418996822260923 0.6988663286420546 0.8939126701507334 H
atom_frac 0.1580989346208810 0.1988621696538786 0.1060859535564447 H
atom_frac 0.6580993777145993 0.3011362240374141 0.1060864415855818 H
atom_frac 0.8419058031371379 0.8011334620633975 0.8939127602857297 H
atom_frac 0.7151627060309879 0.0897129511738299 0.5294311997956243 C
atom_frac 0.7848571375448473 0.5897323842658294 0.4705691395700811 C
atom_frac 0.2848548224185025 0.9102699921123475 0.4705680611746104 C
atom_frac 0.2151589974297964 0.4102805498392144 0.5294326248630482 C
atom_frac 0.5255532644042092 0.6370121573675644 0.6493487565664536 C
atom_frac 0.9744479975212317 0.1370045989624629 0.3506501763732857 C
atom_frac 0.4744486379069741 0.3629927022955783 0.3506504767552343 C
atom_frac 0.0255538978638725 0.8629910327569092 0.6493484158841270 C
atom_frac 0.4863158833013090 0.8614531300682842 0.7060024718030248 C
atom_frac 0.0136823990855035 0.3614450115299875 0.2939968787074250 C
atom_frac 0.5136803411986011 0.1385528830926503 0.2939971594112906 C
atom_frac 0.9863152327377950 0.6385529271782745 0.7060015311734560 C
atom_frac 0.4379470711569483 0.7480983385626703 0.7670622465544810 C
atom_frac 0.0620528773725226 0.2480923121005533 0.2329377460314674 C
atom_frac 0.5620520026504466 0.2519088280897749 0.2329381473067329 C
atom_frac 0.9379447613877617 0.7519044731155520 0.7670613049109533 C
atom_frac 0.4771165915596214 0.0195544608358773 0.7231253020993479 C
atom_frac 0.0228810222392966 0.5195461796423616 0.2768770126227338 C
atom_frac 0.5228768113746939 0.9804515523293207 0.2768761307157347 C
atom_frac 0.9771180377062411 0.4804517590655876 0.7231220991123734 C
atom_frac 0.3777215930766148 0.7853724461842120 0.8473510971032070 C
atom_frac 0.1222740274958625 0.2853672959236134 0.1526500148865537 C
atom_frac 0.6222732241108061 0.2146312599934461 0.1526497554418000 C
atom_frac 0.8777236182014079 0.7146283358003418 0.8473496771174068 C
atom_frac 0.4175161216774583 0.0553970825511314 0.8027552687097881 C
atom_frac 0.0824785675470139 0.5553919870223042 0.1972463022686526 C
atom_frac 0.5824758531370479 0.9446066236286227 0.1972454622504642 C
atom_frac 0.9175190712156934 0.4446024912080445 0.8027527486731570 C
atom_frac 0.3685134362345651 0.9431772178843194 0.8625701434062379 C
atom_frac 0.1314832811014170 0.4431720185227236 0.1374317536583334 C
atom_frac 0.6314799597676100 0.0568253348015091 0.1374306483460899 C
atom_frac 0.8685186350897993 0.5568247666916977 0.8625687617849066 C
atom_frac 0.3957094115545275 0.2073075425787465 0.8417492339723651 C
atom_frac 0.1042835375004998 0.7073034775389786 0.1582523563261233 C
atom_frac 0.6042839775118694 0.7926950101063568 0.1582509167181172 C
atom_frac 0.8957112658250564 0.2926910006941839 0.8417472140927699 C
atom_frac 0.3125086325542624 0.0265000154469561 0.9381969799765741 C
atom_frac 0.1874875107909730 0.5264956002795388 0.0618020723077777 C
atom_frac 0.6874875780753057 0.9735048442196473 0.0618013691137520 C
atom_frac 0.8125157919102508 0.4734988779444578 0.9381952986180266 C
atom_frac 0.7020363386046499 0.7085087621949812 0.4683752614558401 N
atom_frac 0.7979875329711491 0.2085122741074343 0.5316266050551519 N
atom_frac 0.2979741324460151 0.2914903300018353 0.5316281829896424 N
atom_frac 0.2020370875197132 0.7914891250581703 0.4683716777581637 N
atom_frac 0.5406356086580218 0.7871899803454526 0.6340562103996560 N
atom_frac 0.9593667660446815 0.2871836339113970 0.3659435035930372 N
atom_frac 0.4593648655321375 0.2128137258251286 0.3659423210675001 N
atom_frac 0.0406365505256687 0.7128131512998053 0.6340551494570548 N
atom_frac 0.4652567043416128 0.6085775410919113 0.7279192179234285 N
atom_frac 0.0347435302179946 0.1085716466011206 0.2720800600224251 N
atom_frac 0.5347437837188879 0.3914273185730012 0.2720805956677168 N
atom_frac 0.9652555227941805 0.8914239851203334 0.7279184106502256 N
atom_frac 0.3328142371493712 0.1870292785505257 0.9221154571632155 O
atom_frac 0.1671872954717699 0.6870295458195201 0.0778877693203341 O
atom_frac 0.6671834224170327 0.8129686601606423 0.0778855169650328 O
atom_frac 0.8328131995305628 0.3129695463817087 0.9221126853311290 O
atom_frac 0.4247963654883763 0.3361699461204709 0.8146024686910992 O
atom_frac 0.0751906213042375 0.8361613745480838 0.1853983053322708 O
atom_frac 0.5751956093261301 0.6638337600592763 0.1853982622691532 O
atom_frac 0.9247998976534080 0.1638342571789195 0.8145991595242634 O
atom_frac 0.2589378293590557 0.9843341071518381 0.0054410454140523 O
atom_frac 0.2410531445497882 0.4843318417664833 0.9945631944338089 O
atom_frac 0.7410556013219961 0.0156684455376137 0.9945629516474739 O
atom_frac 0.7589516625647764 0.5156649434509222 0.0054419300270681 O
