#=======================================================
# FHI-aims file: geometry_Cu2H20C26N6Cl2.in
# Created using the Atomic Simulation Environment (ASE)
# Wed Dec  8 17:56:10 2021
#=======================================================
lattice_vector 8.5876749889999999 -0.5010401150000000 -2.2182685559999999 
lattice_vector -4.2025545720000004 7.5056962169999997 -2.2182122400000002 
lattice_vector 0.3504063580000000 0.5598046190000000 10.6274992289999997 
atom_frac 0.9004852609169163 0.0995319161611832 0.5000010764181299 Cu
atom_frac 0.0995251683627742 0.9004698159791148 0.5000016094628493 Cu
atom_frac 0.8479112016785492 0.3969070962962533 0.4626854192276043 H
atom_frac 0.6030993906225247 0.1520744007265904 0.5373173489263507 H
atom_frac 0.1520772916826516 0.6030922183276459 0.5373121833951657 H
atom_frac 0.3969021631359907 0.8479230865813959 0.4626807164670197 H
atom_frac 0.7741767531326360 0.4976449820789243 0.2736875417262255 H
atom_frac 0.5023618073441368 0.2258137963222140 0.7263135156826481 H
atom_frac 0.2258226320247658 0.5023576435209662 0.7263111435008583 H
atom_frac 0.4976395940882980 0.7741878954213491 0.2736816316611340 H
atom_frac 0.7019827019137210 0.0143995316078929 0.9932625864577250 H
atom_frac 0.9856117462619521 0.2980370055391078 0.0067448491194711 H
atom_frac 0.2980186403352647 0.9855933874044708 0.0067429498715653 H
atom_frac 0.0143809579639650 0.7019587929391020 0.9932500756646051 H
atom_frac 0.7819109189511054 0.9351163287415291 0.1978005216508906 H
atom_frac 0.0648972578080631 0.2181113242829013 0.8022062925499187 H
atom_frac 0.2180800268734089 0.0648744779524009 0.8022061675712566 H
atom_frac 0.9351148415145120 0.7819079613383551 0.1977947600164215 H
atom_frac 0.4394959310466858 0.2774742067514424 0.1155009903629676 H
atom_frac 0.7225241829243174 0.5605034003960582 0.8844967171204632 H
atom_frac 0.5605129185607252 0.7225288958772538 0.8844997699377047 H
atom_frac 0.2774788501575287 0.4395020328641905 0.1155033155602680 H
atom_frac 0.8168421977352265 0.3157502131536845 0.3571344742790643 C
atom_frac 0.6842642829052180 0.1831637326555722 0.6428716511048976 C
atom_frac 0.1831592016894774 0.6842554130993648 0.6428793720191096 C
atom_frac 0.3157354141106693 0.8168341447992872 0.3571195214791986 C
atom_frac 0.7747420753667382 0.3719870421310887 0.2497748658997168 C
atom_frac 0.6280102012376502 0.2252438095412472 0.7502201304145901 C
atom_frac 0.2252420963836315 0.6280099146079365 0.7502147558443257 C
atom_frac 0.3719845780322685 0.7747518171061215 0.2497789554469564 C
atom_frac 0.7335612169714806 0.2649369000009827 0.1142857816074425 C
atom_frac 0.7350693441168872 0.2664324959841906 0.8857158992375319 C
atom_frac 0.2664390669655177 0.7350611441598717 0.8857215445170328 C
atom_frac 0.2649256742443882 0.7335583097461510 0.1142765845582972 C
atom_frac 0.7360746534013742 0.1044097364869998 0.0960248683128385 C
atom_frac 0.8956015402103644 0.2639433390886338 0.9039828537057133 C
atom_frac 0.2639193462201633 0.8955800504351858 0.9039803635647418 C
atom_frac 0.1044025303934859 0.7360620082561837 0.0960192595137529 C
atom_frac 0.7816763523921822 0.0602068443876078 0.2095854899292534 C
atom_frac 0.9398090063586721 0.2183300419865617 0.7904240647717984 C
atom_frac 0.2183059673996791 0.9397900870281928 0.7904206771640364 C
atom_frac 0.0601981180422085 0.7816742855865114 0.2095765911031010 C
atom_frac 0.5935233883096628 0.4064840548536850 0.9999974543756524 C
atom_frac 0.4064802105992057 0.5935212102579327 0.9999970881298522 C
atom_frac 0.4661385411665506 0.3742357827779728 0.0638687284738992 C
atom_frac 0.6257690954679800 0.5338818772059639 0.9361305993208477 C
atom_frac 0.5338648105656176 0.6257605523576544 0.9361285307679736 C
atom_frac 0.3742345317412871 0.4661273834863807 0.0638722381581047 C
atom_frac 0.8238385477710182 0.1637049778444393 0.3405229634333439 N
atom_frac 0.8362987875581708 0.1761567455500526 0.6594804856700380 N
atom_frac 0.1761557101386088 0.8362868941428375 0.6594724070527179 N
atom_frac 0.1637058527777881 0.8238379280091337 0.3405223414612024 N
atom_frac 0.6876182274388968 0.3123830254962385 0.9999957199887891 N
atom_frac 0.3123852490375326 0.6876184944164763 0.0000035884324632 N
atom_frac 0.7835351097544246 0.7835371104510710 0.4034818364122826 Cl
atom_frac 0.2164730193880543 0.2164689251836336 0.5965146809189080 Cl
