#=======================================================
# FHI-aims file: geometry_Cu6P4H20C20N4O16.in
# Created using the Atomic Simulation Environment (ASE)
# Wed Dec  8 17:56:10 2021
#=======================================================
lattice_vector 5.1740966090000002 -0.0640512630000000 0.0000068350000000 
lattice_vector -2.2636181230000001 7.6218059929999997 0.0000253350000000 
lattice_vector 0.0000390260000000 0.0000713110000000 20.4120108440000010 
atom_frac 0.5555619921450516 0.3666841302673732 0.5489428257914639 Cu
atom_frac 0.9444419750686706 0.6333117394052366 0.0489475293454404 Cu
atom_frac 0.4454407017149651 0.6348821888280655 0.4510927875280402 Cu
atom_frac 0.0545627825468671 0.3651191061428776 0.9510983765951408 Cu
atom_frac 0.5007463405479982 0.9989624244630734 0.4998106921780591 Cu
atom_frac 0.9992600399194129 0.0010368369159792 0.9998149275816317 Cu
atom_frac 0.0532866413477180 0.2564158108046187 0.4419120295609034 P
atom_frac 0.4467205723934384 0.7435804391988653 0.9419178862383362 P
atom_frac 0.9479743408280967 0.7440400801941891 0.5582808454018462 P
atom_frac 0.5520251056298520 0.2559634489035220 0.0582852787590085 P
atom_frac 0.2054005056385435 0.0754564988397064 0.5800891825352750 H
atom_frac 0.2946031557582317 0.9245412437926249 0.0800927735944015 H
atom_frac 0.7960074654151369 0.9257550468284707 0.4195643031319563 H
atom_frac 0.7039949698865371 0.0742456829868843 0.9195695343605692 H
atom_frac 0.5956662051693938 0.2397172116123443 0.3518766431332381 H
atom_frac 0.9043374465498391 0.7602795469478211 0.8518790573875563 H
atom_frac 0.4049617412022216 0.7596142019899759 0.6483417086342910 H
atom_frac 0.0950309914297449 0.2403874197310216 0.1483456619433454 H
atom_frac 0.4914613258161750 0.4747088107103893 0.2841108922798128 H
atom_frac 0.0085352073660089 0.5252929264663776 0.7841117053918368 H
atom_frac 0.5077085133450722 0.5239845139829741 0.7160550406507866 H
atom_frac 0.9922810625122691 0.4760210622699502 0.2160550484942405 H
atom_frac 0.8129751246720075 0.7823108607055148 0.2871507696260239 H
atom_frac 0.6870212804518089 0.2176936082599426 0.7871527166890999 H
atom_frac 0.1849619352200520 0.2168116336233226 0.7128921963677968 H
atom_frac 0.3150325932818491 0.7831874833139383 0.2128917154663696 H
atom_frac 0.2347004817182495 0.8396720495415197 0.3562273789830074 H
atom_frac 0.2652918510357267 0.1603269908298444 0.8562294160245970 H
atom_frac 0.7633981244920918 0.1604646860148051 0.6437788426250819 H
atom_frac 0.7365981727200364 0.8395345927036220 0.1437826835470872 H
atom_frac 0.9751021815336216 0.4148438050531952 0.3860101234183304 C
atom_frac 0.5249091615045529 0.5851628756132925 0.8860137164026868 C
atom_frac 0.0248126847329432 0.5853095034510220 0.6142479100864549 C
atom_frac 0.4751849353952979 0.4146888612361722 0.1142526458462143 C
atom_frac 0.7367882826849766 0.3723142940087386 0.3492128034786290 C
atom_frac 0.7632154312499467 0.6276825149170480 0.8492156413968033 C
atom_frac 0.2631786097251947 0.6272201763015274 0.6510030987200395 C
atom_frac 0.2368134846259906 0.3727800782290416 0.1510071183360466 C
atom_frac 0.6775790957559809 0.5041229742131891 0.3125856950378250 C
atom_frac 0.8224182904699758 0.4958757789431517 0.8125883305923125 C
atom_frac 0.3216262291787331 0.4950534738773341 0.6875817070041634 C
atom_frac 0.1783605550244189 0.5049447395522649 0.1875834780509180 C
atom_frac 0.8561547387081134 0.6749811554618290 0.3137871666091883 C
atom_frac 0.6438501673242739 0.3250215744898880 0.8137888761579433 C
atom_frac 0.1424447895010985 0.3244053746832237 0.6862861731085843 C
atom_frac 0.3575489967112447 0.6755955458866439 0.1862874005408059 C
atom_frac 0.0905956376189393 0.7088317026131390 0.3512222033056105 C
atom_frac 0.4094051475105829 0.2911688144769328 0.8512238190418768 C
atom_frac 0.9079335816532035 0.2911407112930321 0.6489109044402426 C
atom_frac 0.5920614434601390 0.7088558366572997 0.1489141867319219 C
atom_frac 0.1474494467980065 0.5804171350972354 0.3859793308717911 N
atom_frac 0.3525532539290737 0.4195801236509810 0.8859811558228684 N
atom_frac 0.8516141811770979 0.4199992969350959 0.6142875209289115 N
atom_frac 0.6483816526200525 0.5799979056709216 0.1142935349140402 N
atom_frac 0.8136474587712357 0.2076187994940000 0.4899262133028373 O
atom_frac 0.6863702155067131 0.7923794297572330 0.9899277140383376 O
atom_frac 0.1883381677726420 0.7919444429594551 0.5103847302657343 O
atom_frac 0.3116603031204761 0.2080611204924026 0.0103905783802603 O
atom_frac 0.1095071092554107 0.1060188534961952 0.4057677917590325 O
atom_frac 0.3904920371327520 0.8939753809952792 0.9057747824759445 O
atom_frac 0.8919561861256045 0.8945725653658698 0.5943035858737744 O
atom_frac 0.6080451463897559 0.1054276814762645 0.0943063957643844 O
atom_frac 0.3052885438469630 0.3833999492531887 0.4779890758672138 O
atom_frac 0.1947321936541115 0.6165931152400856 0.9779973761618308 O
atom_frac 0.6961126058212204 0.6178180969829655 0.5219029948134803 O
atom_frac 0.8038857505130821 0.3821861036829047 0.0219059663535006 O
atom_frac 0.4027450326489940 0.1240907366467923 0.5722505338974173 O
atom_frac 0.0972582357309265 0.8759058373441918 0.0722533980330056 O
atom_frac 0.5977923235601139 0.8769022681004158 0.4261762236094241 O
atom_frac 0.9022124732653080 0.1230996698677487 0.9261807109124051 O
