#=======================================================
# FHI-aims file: geometry_Cu4H36C44N16.in
# Created using the Atomic Simulation Environment (ASE)
# Wed Dec  8 17:56:10 2021
#=======================================================
lattice_vector 9.2366438389999992 -0.0666020150000000 -0.0000482720000000 
lattice_vector -2.1725026989999998 11.0076545380000006 0.0000093310000000 
lattice_vector -0.0000726490000000 0.0000021000000000 14.4692371410000007 
atom_frac 0.4580632794226674 0.9929795648122952 0.9165046309567799 Cu
atom_frac 0.5419346050139922 0.5070220038942920 0.4165044342364297 Cu
atom_frac 0.5419402518054498 0.0070209450315772 0.0834961845779745 Cu
atom_frac 0.4580609089359343 0.4929766405236722 0.5834949990298951 Cu
atom_frac 0.3720168881583065 0.7281792605717214 0.6344074033694439 H
atom_frac 0.6279826549582310 0.7718206088871042 0.1344129682282755 H
atom_frac 0.6279855588933998 0.2718212427120505 0.3655947944045721 H
atom_frac 0.3720234726010573 0.2281817335834049 0.8655878473139538 H
atom_frac 0.4178406279528488 0.8834695348677287 0.7586185656771889 H
atom_frac 0.5821541415832527 0.6165293498570322 0.2586219516926604 H
atom_frac 0.5821633312265461 0.1165327944830850 0.2413815587363715 H
atom_frac 0.4178459230831492 0.3834702305541313 0.7413760993453664 H
atom_frac 0.7275764674323426 0.6825864848059312 0.8770219624363520 H
atom_frac 0.2724162477988302 0.8174141592316034 0.3770147292235606 H
atom_frac 0.2724197027914244 0.3174103466642891 0.1229829998048544 H
atom_frac 0.7275857569573674 0.1825890667533372 0.6229819395757089 H
atom_frac 0.6725562635017327 0.5396855443029339 0.7483385146234340 H
atom_frac 0.3274467902019893 0.9603170283036205 0.2483369932207040 H
atom_frac 0.3274425030369698 0.4603131197942147 0.2516643742609332 H
atom_frac 0.6725628038757135 0.0396862436003858 0.7516610578467321 H
atom_frac 0.8056497146241312 0.8550237376654762 0.9373176194387298 H
atom_frac 0.1943461277597436 0.6449723599917406 0.4373183811680832 H
atom_frac 0.1943520904763005 0.1449740363583274 0.0626825049705886 H
atom_frac 0.8056485159704607 0.3550271876199460 0.5626796698518817 H
atom_frac 0.1218182024232135 0.8416418734609152 0.1666534319363109 H
atom_frac 0.8781874949232532 0.6583543870969919 0.6666520255880853 H
atom_frac 0.8781788379823894 0.1583540548162716 0.8333480747011848 H
atom_frac 0.1218099590839898 0.3416479028953462 0.3333418787108542 H
atom_frac 0.9167968803461050 0.8071392841926441 0.0548264373907088 H
atom_frac 0.0832025147057465 0.6928560724423605 0.5548245199855089 H
atom_frac 0.0831986336254644 0.1928593602249222 0.9451757603613797 H
atom_frac 0.9167919292929126 0.3071380232095819 0.4451673109443489 H
atom_frac 0.8084618807417313 0.1452121226072620 0.1475798378510760 H
atom_frac 0.1915376874242511 0.3547836119432120 0.6475791255691445 H
atom_frac 0.1915422924268384 0.8547911164967774 0.8524216688054906 H
atom_frac 0.8084565283871541 0.6452141161609364 0.3524237633006422 H
atom_frac 0.0165859929142513 0.1624209870257474 0.2598325847072971 H
atom_frac 0.9834242209744132 0.3375756775649137 0.7598337227318056 H
atom_frac 0.9834197066829304 0.8375795359380120 0.7401675397132408 H
atom_frac 0.0165751732092332 0.6624302579996169 0.2401698572714039 H
atom_frac 0.4505362322026869 0.7215883406771226 0.6895584693177951 C
atom_frac 0.5494652589148430 0.7784115195257115 0.1895607372870458 C
atom_frac 0.5494647027050873 0.2784103365399133 0.3104437284523484 C
atom_frac 0.4505397844463844 0.2215908163850956 0.8104386960086885 C
atom_frac 0.4760581041703915 0.8079364050328832 0.7589139174660957 C
atom_frac 0.5239388383408752 0.6920624927274375 0.2589140531344967 C
atom_frac 0.5239452130847937 0.1920631950574646 0.2410875891899664 C
atom_frac 0.4760616542930408 0.3079389071903692 0.7410853801466643 C
atom_frac 0.5771770505847513 0.7986496469515316 0.8304964727712161 C
atom_frac 0.4228149359574829 0.7013510104278355 0.3304952306204144 C
atom_frac 0.4228236703554984 0.2013481205118879 0.1695071072416852 C
atom_frac 0.5771849004296500 0.2986522024372178 0.6695021292930647 C
atom_frac 0.6493051590018268 0.6990465837850408 0.8246022028795321 C
atom_frac 0.3506887039044244 0.8009486364439409 0.3246003510084705 C
atom_frac 0.3506927516289053 0.3009484412983242 0.1754013771257590 C
atom_frac 0.6493143850552486 0.1990545961006021 0.6753983911587297 C
atom_frac 0.6167371627685582 0.6167112470826480 0.7524670382070439 C
atom_frac 0.3832620611132072 0.8832885753998030 0.2524666797055488 C
atom_frac 0.3832603056099728 0.3832865007010824 0.2475365417950144 C
atom_frac 0.6167421120337053 0.1167146637046343 0.7475320624652610 C
atom_frac 0.7115554738680956 0.8953659459342020 0.9573383764853318 C
atom_frac 0.2884404681201077 0.6046292362280924 0.4573384358358439 C
atom_frac 0.2884450187820633 0.1046354539833061 0.0426631301601503 C
atom_frac 0.7115567862421911 0.3953676018029098 0.5426603063160158 C
atom_frac 0.0492110789363167 0.9073928676398140 0.1618063126493610 C
atom_frac 0.9507912899371364 0.5926033746282968 0.6618061666762642 C
atom_frac 0.9507879015644962 0.0926067062110576 0.8381945028708131 C
atom_frac 0.0492046519478322 0.4073970892969001 0.3381905021045597 C
atom_frac 0.9349264994501353 0.8888440085220709 0.0975038851890062 C
atom_frac 0.0650774728464256 0.6111495426067179 0.5975005699703287 C
atom_frac 0.0650722527876439 0.1111591977823920 0.9024983125709410 C
atom_frac 0.9349193535267091 0.3888454759180320 0.4024940254526398 C
atom_frac 0.8428100223251036 0.9745393642127665 0.0908632278182253 C
atom_frac 0.1571914493151709 0.5254578081543572 0.5908606377508008 C
atom_frac 0.1571921964473262 0.0254647715249092 0.9091382788312501 C
atom_frac 0.8428058050363062 0.4745390298768442 0.4091367221581804 C
atom_frac 0.8751997286825316 0.0752621501573856 0.1508276852541357 C
atom_frac 0.1248048833194630 0.4247317967545642 0.6508250552287294 C
atom_frac 0.1248038025455855 0.9247383596864865 0.8491731302806186 C
atom_frac 0.8751921427689736 0.5752686737302355 0.3491736869200253 C
atom_frac 0.9916262358507738 0.0843970761053328 0.2131665304961174 C
atom_frac 0.0083819489154990 0.4155986855553735 0.7131652087878422 C
atom_frac 0.0083781655808225 0.9156025305451084 0.7868335939206759 C
atom_frac 0.9916155051404587 0.5844036044360692 0.2868349156040466 C
atom_frac 0.5174643134205894 0.6251425045312048 0.6852689640241393 N
atom_frac 0.4825379807141842 0.8748564537083398 0.1852706610351759 N
atom_frac 0.4825351093486674 0.3748543466189956 0.3147339248635816 N
atom_frac 0.5174670626632717 0.1251458822021689 0.8147308456248795 N
atom_frac 0.5935408741534188 0.8819598298584808 0.9022514659633033 N
atom_frac 0.4064509381218144 0.6180398906296959 0.4022488398353232 N
atom_frac 0.4064574501276682 0.1180415569391400 0.0977507317963884 N
atom_frac 0.5935471721484546 0.3819605864150973 0.5977492111956052 N
atom_frac 0.7194572087184169 0.9629896353925460 0.0332053265351959 N
atom_frac 0.2805394653485607 0.5370048045693849 0.5332063090975083 N
atom_frac 0.2805493467867350 0.0370145265850041 0.9667941067644106 N
atom_frac 0.7194554066663271 0.4629911105883124 0.4667931241684329 N
atom_frac 0.0790900059262611 0.0022463542094613 0.2203111170138499 N
atom_frac 0.9209167643108742 0.4977521215427174 0.7203102491448092 N
atom_frac 0.9209115709057160 0.9977550522680476 0.7796896985137990 N
atom_frac 0.0790798195253686 0.5022510716424479 0.2796884930007195 N
