#=======================================================
# FHI-aims file: ./geometry.in
# Created using the Atomic Simulation Environment (ASE)
# Mon Feb  7 19:01:13 2022
#=======================================================
lattice_vector 4.6816398699999997 0.1356813400000000 0.1358287800000000 
lattice_vector -0.0765019900000000 9.6065231600000001 -6.9436087500000001 
lattice_vector -0.4211375400000000 -2.8075613900000000 17.2923738799999995 
atom_frac 0.2083523300000000 0.4344652899999999 0.4708336799999999 Co
    initial_moment         1.000000
atom_frac 0.7084154499999999 0.0655648900000000 0.5291834200000000 Co
    initial_moment         1.000000
atom_frac 0.7916507799999999 0.5655144900000001 0.5291591600000000 Co
    initial_moment        -3.000000
atom_frac 0.2915916400000000 0.9344622299999999 0.4708414400000000 Co
    initial_moment        -1.000000
atom_frac 0.3164538599999999 -0.0331090300000000 0.0410403700000000 H
atom_frac 0.8166988799999999 0.5331583799999999 0.9590054899999999 H
atom_frac 0.6835981299999999 1.0330173500000002 0.9589275200000000 H
atom_frac 0.1832920600000000 0.4668847900000000 0.0410163300000000 H
atom_frac -0.0269611800000000 -0.1608854600000000 0.0714533300000000 H
atom_frac 0.4730656400000000 0.6607995899999999 0.9285378799999999 H
atom_frac 1.0270099699999999 1.1608078199999998 0.9285221799999999 H
atom_frac 0.5269428099999999 0.3392403700000000 0.0714774600000000 H
atom_frac 0.0781171100000000 0.8489375600000001 0.2158063300000000 H
atom_frac 0.5779068099999999 0.6508669500000001 0.7841181099999999 H
atom_frac 0.9218825099999999 0.1510327400000000 0.7841940400000000 H
atom_frac 0.4221143000000000 0.3491574900000000 0.2158907200000000 H
atom_frac 0.7804443699999999 0.2325324800000001 0.3629163600000000 C
atom_frac 0.2805212100000000 0.2674790100000000 0.6370908699999999 C
atom_frac 0.2195426099999999 0.7674485700000001 0.6370748899999999 C
atom_frac 0.7194874100000000 0.7325458700000000 0.3629294900000000 C
atom_frac 0.6163856200000000 0.0865862400000000 0.2682047600000000 C
atom_frac 0.1164765500000000 0.4134145300000000 0.7318127300000000 C
atom_frac 0.3835910199999999 0.9133935600000000 0.7317943400000000 C
atom_frac 0.8835321299999999 0.5866115800000000 0.2682054800000001 C
atom_frac 0.5702702300000000 0.0674661100000000 0.1794240100000000 C
atom_frac 0.0704095200000000 0.4325266400000000 0.8205898000000000 C
atom_frac 0.4297533099999999 0.9324787300000000 0.8205582300000001 C
atom_frac 0.9295901100000000 0.5675073899999999 0.1794314400000001 C
atom_frac 0.3425309100000000 -0.0188109900000000 0.1095188500000000 C
atom_frac 0.8426914599999999 0.5188211200000000 0.8905076300000000 C
atom_frac 0.6575035299999998 1.0187409000000001 0.8904588900000000 C
atom_frac 0.1573045100000000 0.4812141300000000 0.1095109000000000 C
atom_frac 0.1583803400000000 -0.0954154800000000 0.1242065200000000 C
atom_frac 0.6584239100000000 0.5953629000000001 0.8757914800000000 C
atom_frac 0.8416497699999999 1.0953550500000000 0.8757772000000000 C
atom_frac 0.3415788900000000 0.4046691700000000 0.1242225200000000 C
atom_frac 0.2188027400000000 -0.0930747500000000 0.2023760699999999 C
atom_frac 0.7187418800000001 0.5929835200000001 0.7976006600000000 C
atom_frac 0.7811944699999999 1.0930451199999998 0.7976239299999999 C
atom_frac 0.2812691399999999 0.4070408200000000 0.2024103800000000 C
atom_frac 0.4440043499999999 -0.0023835300000000 0.2745795300000000 C
atom_frac 0.9440341299999999 0.5023587100000000 0.7254251899999999 C
atom_frac 0.5559636200000000 1.0023795099999999 0.7254303200000000 C
atom_frac 0.0559704200000000 0.4976570100000000 0.2745848700000000 C
atom_frac 0.4746721800000000 0.0041875500000000 0.3616720400000000 C
atom_frac 0.9746799799999999 0.4957958200000001 0.6383316200000000 C
atom_frac 0.5252901299999999 0.9958280299999998 0.6383470400000000 C
atom_frac 0.0253040400000000 0.5042006200000000 0.3616692800000000 C
atom_frac 0.8111623599999999 0.1526075500000000 0.1592527300000000 Cl
atom_frac 0.3113290700000000 0.3473440800000000 0.8407355600000000 Cl
atom_frac 0.1888652600000000 0.8473205999999999 0.8407176700000000 Cl
atom_frac 0.6886708599999999 0.6526992900000002 0.1592929500000000 Cl
atom_frac 0.0442559900000000 0.2270527900000000 0.3685324000000000 O
atom_frac 0.5442619499999999 0.2729504100000000 0.6313345600000001 O
atom_frac 0.9557666599999999 0.7729352600000000 0.6313772200000000 O
atom_frac 0.4557336100000000 0.7270778600000000 0.3686573800000000 O
atom_frac 0.6328084499999999 0.3618617900000000 0.4298043100000000 O
atom_frac 0.1329497000000000 0.1381287200000000 0.5703144200000000 O
atom_frac 0.3671820100000000 0.6381092400000001 0.5702559300000001 O
atom_frac 0.8670590700000000 0.8618921300000000 0.4297353100000000 O
atom_frac 0.6873434600000000 0.0752724900000000 0.4253093400000000 O
atom_frac 0.1872714500000000 0.4246781700000001 0.5746685100000000 O
atom_frac 0.3126489100000000 0.9247220600000000 0.5746959600000000 O
atom_frac 0.8126341300000000 0.5752528099999999 0.4252984000000000 O
atom_frac 0.2799934000000000 -0.0681828800000000 0.3640899900000000 O
atom_frac 0.7800818700000000 0.5682402200000000 0.6359501900000000 O
atom_frac 0.7199389400000000 1.0682267900000000 0.6359446100000000 O
atom_frac 0.2199680100000000 0.4318075399999999 0.3640741299999999 O
