#=======================================================
# FHI-aims file: ./geometry.in
# Created using the Atomic Simulation Environment (ASE)
# Mon Feb  7 19:01:13 2022
#=======================================================
lattice_vector 4.7797634000000002 0.6225151200000000 0.3059390600000000 
lattice_vector 0.6508012100000000 9.8708225499999998 3.3304283300000002 
lattice_vector -0.0895847000000000 0.4078959600000000 7.7967127899999999 
atom_frac -0.0000051300000000 0.4999737800000000 -0.0000145600000000 Co
    initial_moment         2.000000
atom_frac 0.4429657700000000 0.5192312100000001 0.6693337499999998 H
atom_frac 0.5570369700000000 0.4807130500000000 0.3306367499999999 H
atom_frac 0.8205536100000000 0.2705247000000000 0.8735978599999998 H
atom_frac 0.1794583400000000 0.7294144699999999 0.1263731000000000 H
atom_frac 0.9686147200000000 0.2843027500000000 0.4106976199999999 H
atom_frac 0.0313902700000000 0.7156278500000000 0.5892862899999998 H
atom_frac 0.8604319200000000 0.1636986700000000 0.6142619900000000 H
atom_frac 0.1396093100000000 0.8362259399999999 0.3857293899999999 H
atom_frac 0.5392216000000000 1.0770421099999998 0.7620785200000000 H
atom_frac 0.4608100200000000 -0.0771048300000000 0.2378953900000000 H
atom_frac 0.0780868000000000 0.1042766300000000 0.2915181299999999 H
atom_frac 0.9219496700000002 0.8956637600000001 0.7084519499999999 H
atom_frac 0.3091581700000000 0.4419287299999999 0.6935348000000000 C
atom_frac 0.6908481800000000 0.5580138399999999 0.3064371300000000 C
atom_frac 0.9835517200000000 0.3216327499999999 0.7911767400000000 C
atom_frac 0.0164588200000000 0.6783078600000000 0.2087944900000000 C
atom_frac 0.0472021100000000 0.2105835400000000 0.5492725699999998 C
atom_frac 0.9528243100000001 0.7893493400000000 0.4507077099999999 C
atom_frac 0.2851768900000000 0.1023931900000000 0.5290572700000000 C
atom_frac 0.7148553300000000 0.8975449100000000 0.4709160900000000 C
atom_frac 0.5264334800000001 1.0478239499999999 0.6419022299999998 C
atom_frac 0.4735989800000000 -0.0478860000000000 0.3580710400000000 C
atom_frac 0.2587519500000001 0.0535601700000000 0.3871265199999999 C
atom_frac 0.7412819700000001 0.9463790900000000 0.6128453599999999 C
atom_frac 0.5226041600000000 0.4306755900000000 0.0696599700000000 C
atom_frac 0.4773835400000000 0.5692699200000000 0.9303075699999999 C
atom_frac 0.1020968100000000 0.4172375400000000 0.8200532400000000 N
atom_frac 0.8979037300000000 0.5827069700000000 0.1799149500000000 N
atom_frac 0.1184087100000000 0.2915810300000000 0.6498723699999999 N
atom_frac 0.8816135499999997 0.7083550100000001 0.3501045599999999 N
atom_frac 0.3248263000000000 0.3659199200000000 0.5878657099999999 N
atom_frac 0.6751938300000000 0.6340175400000000 0.4121118499999999 N
atom_frac 0.3074183700000000 0.3814624800000000 0.1497384200000000 O
atom_frac 0.6925730800000000 0.6184819899999999 0.8502349199999999 O
atom_frac 0.7796636800000000 0.3644518299999999 0.1129819200000000 O
atom_frac 0.2203265000000000 0.6354974500000000 0.8869845099999999 O
