#=======================================================
# FHI-aims file: geometry_Fe2H16C20S4N28.in
# Created using the Atomic Simulation Environment (ASE)
# Tue Dec 21 18:09:01 2021
#=======================================================
lattice_vector 8.3997647620000002 0.0419426390000000 -0.2470514210000000 
lattice_vector -0.9668573880000000 8.3440327130000007 -0.2470555620000000 
lattice_vector -0.0381693430000000 -0.0430694850000000 12.7036699249999998 
atom_frac 0.0000006553457510 0.5000022016286750 0.5000002774260324 Fe
atom_frac 0.4999968328465199 0.9999983342113408 0.0000000061799383 Fe
atom_frac 0.8899569319123231 0.2871702951146773 0.8610615836121835 H
atom_frac 0.7128312379105211 0.1100439988131470 0.6389384327639858 H
atom_frac 0.1100399142891746 0.7128314009925136 0.1389357949313492 H
atom_frac 0.2871702543044563 0.8899565002040218 0.3610637358958542 H
atom_frac 0.2773667836247354 0.4402951640227998 0.6668467676852216 H
atom_frac 0.5597077422765723 0.7226323425680262 0.8331542770768792 H
atom_frac 0.7226345665442010 0.5597041330490458 0.3331545876631877 H
atom_frac 0.4402931817542637 0.2773633486678407 0.1668446383372454 H
atom_frac 0.2921815834143970 0.5377114474412322 0.9572153992511685 H
atom_frac 0.4622913122365233 0.7078193628804998 0.5427888536780401 H
atom_frac 0.7078196327948162 0.4622866557725943 0.0427867174485499 H
atom_frac 0.5377137376670476 0.2921811064180205 0.4572110220687832 H
atom_frac 0.2397956730179089 0.0650775553144314 0.8204628816165138 H
atom_frac 0.9349328618156177 0.7602036244097051 0.6795405640007672 H
atom_frac 0.7601990733537960 0.9349265523648855 0.1795352901644448 H
atom_frac 0.0650700923013119 0.2397992605045971 0.3204608923148484 H
atom_frac 0.8009252343783900 0.1830848146627845 0.4350783570164367 C
atom_frac 0.8169079501683638 0.1990743585383045 0.0649238135368009 C
atom_frac 0.1990751699861733 0.8169061173156252 0.5649267531284322 C
atom_frac 0.1830746824614167 0.8009177986254485 0.9350691672120418 C
atom_frac 0.9550783215212063 0.3336551781487458 0.7942566898871846 C
atom_frac 0.6663461192136494 0.0449216543519100 0.7057448716097241 C
atom_frac 0.0449198647519964 0.6663477221285135 0.2057430996575604 C
atom_frac 0.3336552309552873 0.9550776427199422 0.2942564837386853 C
atom_frac 0.1575295064752210 0.4150809298777531 0.6957608307687976 C
atom_frac 0.5849207467937347 0.8424709534371431 0.8042426083845129 C
atom_frac 0.8424733096388336 0.5849207571348742 0.3042405995667606 C
atom_frac 0.4150783534130653 0.1575295451742065 0.1957571522271450 C
atom_frac 0.3065119166905035 0.4117932574371609 0.9448065078891544 C
atom_frac 0.5882075189757501 0.6934873337146713 0.5551952662511113 C
atom_frac 0.6934870576428834 0.5882060554034753 0.0551955887365594 C
atom_frac 0.4117929132164377 0.3065143609794347 0.4448053306990117 C
atom_frac 0.2774735483983690 0.1657296514094425 0.8746704481611258 C
atom_frac 0.8342689923353174 0.7225212575831607 0.6253256171091691 C
atom_frac 0.7225157320288959 0.8342684740371525 0.1253243522859151 C
atom_frac 0.1657350096749326 0.2774804195232506 0.3746750489220503 C
atom_frac 0.7216242097518871 0.0043696595816272 0.3976691668609220 S
atom_frac 0.9956280818691213 0.2783819626113415 0.1023339831963455 S
atom_frac 0.2783843204847400 0.9956296427513609 0.6023401999634075 S
atom_frac 0.0043693820444375 0.7216149158083243 0.8976593777971259 S
atom_frac 0.8563229063071276 0.3142325400287689 0.4632754725492062 N
atom_frac 0.6857699497703961 0.1436761914125881 0.0367276893637722 N
atom_frac 0.1436835559704832 0.6857799406356974 0.5367309616491694 N
atom_frac 0.3142331342631053 0.8563278833160838 0.9632722182691535 N
atom_frac 0.0221636237801448 0.4274457141700552 0.6429290468115026 N
atom_frac 0.5725516043912576 0.9778328539028682 0.8570719167771300 N
atom_frac 0.9778368003257327 0.5725559724367458 0.3570699754758735 N
atom_frac 0.4274432319399252 0.0221616687441539 0.1429268575217648 N
atom_frac 0.8942224278383010 0.3768075785997241 0.7044618903371215 N
atom_frac 0.6231908237572199 0.1057768161949184 0.7955396345308472 N
atom_frac 0.1057778542215431 0.6231929060617462 0.2955363186388240 N
atom_frac 0.3768032487727098 0.8942213181506490 0.2044615566753123 N
atom_frac 0.1194542846997777 0.3545617659795610 0.7914002698820466 N
atom_frac 0.6454440797036795 0.8805451431894655 0.7086016486124861 N
atom_frac 0.8805439056165839 0.6454411383413474 0.2086003069940645 N
atom_frac 0.3545595123410905 0.1194529442555776 0.2913997268099350 N
atom_frac 0.2279867247382228 0.3147686708355337 0.8660993130446926 N
atom_frac 0.6852396795698751 0.7720129328144054 0.6339041846249031 N
atom_frac 0.7720092317886155 0.6852354511994890 0.1339028184201609 N
atom_frac 0.3147641844374930 0.2279875463903309 0.3660964554262590 N
atom_frac 0.3821394918051125 0.1733961343431005 0.9547584796752699 N
atom_frac 0.8266048614218419 0.6178623216912912 0.5452448205626580 N
atom_frac 0.6178559086670533 0.8266031920415745 0.0452427605379739 N
atom_frac 0.1733992785912903 0.3821405533167876 0.4547558714486185 N
atom_frac 0.4011714424280584 0.3275834254163996 0.9986886747755790 N
atom_frac 0.6724193850413797 0.5988265414919738 0.5013130559853706 N
atom_frac 0.5988251520266203 0.6724158991493637 0.0013133757960730 N
atom_frac 0.3275867167986704 0.4011727240423114 0.4986868168084229 N
