#=======================================================
# FHI-aims file: geometry_Mn2P2H32C52N4O12.in
# Created using the Atomic Simulation Environment (ASE)
# Tue Dec 21 17:57:42 2021
#=======================================================
lattice_vector 9.4645532840000008 0.0000000000000000 1.8010590000000000 
lattice_vector 4.1849368849999999 10.1870624949999993 0.3871400000000000 
lattice_vector 0.0000000000000000 0.0000000000000000 11.5824999999999996 
atom_frac 0.0645708071695381 0.3010406583355305 0.3545114859608915 Mn
atom_frac 0.9354300942674811 0.6989620416577225 0.6454892333297054 Mn
atom_frac 0.1734049347856512 0.3547460322123044 0.5926225860262663 P
atom_frac 0.8265878167389219 0.6452488146829580 0.4073779363052594 P
atom_frac 0.1957622790676865 0.4630697026071431 0.8049434734087910 H
atom_frac 0.8042431513437194 0.5369251442881193 0.1950455802913283 H
atom_frac 0.1445826541652693 0.4154661858683326 0.0165564023548157 H
atom_frac 0.8554273794893065 0.5845325875759215 0.9834343944200513 H
atom_frac 0.0094201296280971 0.1062435810648310 0.9262519016428855 H
atom_frac 0.9905835645830622 0.8937551923794302 0.0737528314766109 H
atom_frac 0.0644960307743787 0.1495013897036088 0.7147550939175176 H
atom_frac 0.9355007585720260 0.8504914939171612 0.2852509097614445 H
atom_frac 0.3848026485718279 0.1099502433159429 0.4709658182057908 H
atom_frac 0.6152013483181166 0.8900406770303205 0.5290356768481743 H
atom_frac 0.6676126322213208 0.0222380102322148 0.3953370202411222 H
atom_frac 0.3323911190923353 0.9777558550258050 0.6046644145671465 H
atom_frac 0.6890267057833270 0.3720581867304986 0.5263694059052639 H
atom_frac 0.3109679133127656 0.6279396050765058 0.4736264107323578 H
atom_frac 0.4078160082161943 0.4591117412203545 0.6061816351014144 H
atom_frac 0.5921764977320977 0.5408860505866570 0.3938127833841564 H
atom_frac 0.1167096946993524 0.5656871156752458 0.3636010225781945 H
atom_frac 0.8832873573896123 0.4343195108670058 0.6364053442650714 H
atom_frac 0.2952796175326499 0.6566623109736796 0.2457529669981398 H
atom_frac 0.7047138878870458 0.3433403890195734 0.7542428587602857 H
atom_frac 0.5334001435341591 0.5034689835776830 0.1144961699619458 H
atom_frac 0.4665878334397462 0.4965366613273118 0.8854986902850470 H
atom_frac 0.6964587387490013 0.2702810551472936 0.0385901241319004 H
atom_frac 0.3035317854227627 0.7297236081204588 0.9614035094695056 H
atom_frac 0.7327638909824827 0.0364275766622768 0.0310059509813883 H
atom_frac 0.2672302369610549 0.9635761049682259 0.9689940620221692 H
atom_frac 0.6377507777199798 0.8553280206415366 0.1059668924773832 H
atom_frac 0.3622396150805045 0.1446697711654679 0.8940425319139821 H
atom_frac 0.4339649495201671 0.7944792725059243 0.2295410158794908 H
atom_frac 0.5660219137773340 0.2055312805853191 0.7704788912608080 H
atom_frac 0.1945189957403243 0.9746322853004159 0.3365189440206963 H
atom_frac 0.8054720367502883 0.0253831759770691 0.6634975606488072 H
atom_frac 0.1355340840179480 0.3089987915108026 0.7448840341918627 C
atom_frac 0.8644703469220473 0.6909911471982184 0.2551139726929962 C
atom_frac 0.1582965081829997 0.3827403632709334 0.8311007593379431 C
atom_frac 0.8417091678046803 0.6172515387125870 0.1688961249510612 C
atom_frac 0.1274413714057304 0.3576575682919695 0.9501150028118985 C
atom_frac 0.8725657381034183 0.6423382602405424 0.0498823906952452 C
atom_frac 0.0723675314251793 0.2586427639266162 0.9859780571199934 C
atom_frac 0.9276429362794615 0.7413550278803880 0.0140161584574870 C
atom_frac 0.0497644330720561 0.1849924844306159 0.8996532121315115 C
atom_frac 0.9502405632892846 0.8150033441018962 0.1003488268238399 C
atom_frac 0.0814670717139094 0.2091741364152711 0.7801064815121280 C
atom_frac 0.9185356230258536 0.7908197288427488 0.2198968443345137 C
atom_frac 0.0479128065591468 0.2225617052131383 0.1138902369933206 C
atom_frac 0.9521102657635367 0.7774243069468837 0.8860963687168352 C
atom_frac 0.3786073924904656 0.2890892248325230 0.5442985319047581 C
atom_frac 0.6213966043994718 0.7109016955137477 0.4556960561774800 C
atom_frac 0.4522571145252741 0.1658898235707724 0.4852696453505772 C
atom_frac 0.5477466938908864 0.8340991335009987 0.5147284911464709 C
atom_frac 0.6091442796140143 0.1170582786338343 0.4427012536941391 C
atom_frac 0.3908579810756764 0.8829365682614281 0.5572977899784207 C
atom_frac 0.6945064181620566 0.1912327524206461 0.4581704396494147 C
atom_frac 0.3054945403774595 0.8087650393863584 0.5418261179584933 C
atom_frac 0.6213006396811593 0.3143074857518116 0.5176144952439046 C
atom_frac 0.3786986397606072 0.6856893244179502 0.4823797661572372 C
atom_frac 0.4647606351240655 0.3625785158197344 0.5615324868249161 C
atom_frac 0.5352382102676358 0.6374192759872699 0.4384635360024094 C
atom_frac 0.8637692448534937 0.1395122490607648 0.4096481636548290 C
atom_frac 0.1362308455858994 0.8604875060207461 0.5903475999481174 C
atom_frac 0.2158698599729547 0.5025089423484487 0.3019136053465273 C
atom_frac 0.7841306074139994 0.4974947392820539 0.6980871486273160 C
atom_frac 0.3200338029582993 0.5521022377903861 0.2371706780521947 C
atom_frac 0.6799670413762158 0.4479053703891083 0.7628255692064343 C
atom_frac 0.4501082967450145 0.4676883058623105 0.1652464969083668 C
atom_frac 0.5498827928480948 0.5323222472289330 0.8347520321349935 C
atom_frac 0.4768088200786167 0.3326209102636923 0.1582480746055310 C
atom_frac 0.5231869869626706 0.6673837530040601 0.8417490543760026 C
atom_frac 0.6101082304019131 0.2373962073155980 0.0884207652027129 C
atom_frac 0.3898863315916897 0.7626064926776550 0.9115740328888080 C
atom_frac 0.6306654552151159 0.1077013123791559 0.0847674353396286 C
atom_frac 0.3693295408285450 0.8923004059768473 0.9152316449259673 C
atom_frac 0.5193334848507263 0.0631408711113437 0.1517164166860496 C
atom_frac 0.4806620766142728 0.9368667370681507 0.8482866956500389 C
atom_frac 0.5355423623755301 0.9301336871792714 0.1557344832901109 C
atom_frac 0.4644472936961180 0.0698729393629804 0.8442738969927036 C
atom_frac 0.4221881711724932 0.8966294262436421 0.2233795017086351 C
atom_frac 0.5777991261750657 0.1033801452103518 0.7766360538910888 C
atom_frac 0.2904216506930269 0.9952859330132140 0.2861427564099088 C
atom_frac 0.7095696273738668 0.0047265833525216 0.7138694916479622 C
atom_frac 0.3851172247266633 0.1551104649427231 0.2203947067518328 C
atom_frac 0.6148792048384594 0.8448951799622790 0.7796083362177628 C
atom_frac 0.3636745351095953 0.2912763126226423 0.2240341889748620 C
atom_frac 0.6363261778536327 0.7087244240961111 0.7759666252446851 C
atom_frac 0.2349476547706218 0.3767023125541371 0.2929547920193656 N
atom_frac 0.7650515675686480 0.6232994058018662 0.7070479479218007 N
atom_frac 0.2743705759109575 0.1205597786999704 0.2852492028659129 N
atom_frac 0.7256257965516610 0.8794507743912658 0.7147588651578333 N
atom_frac 0.1075977670200459 0.2854296811693402 0.5166379302016608 O
atom_frac 0.8924030601481833 0.7145612391769305 0.4833588775098293 O
atom_frac 0.1147405926995404 0.5031931435107991 0.5927691974335758 O
atom_frac 0.8852599888924078 0.4968007217472135 0.4072266866607564 O
atom_frac 0.0391717994319052 0.3131579885335752 0.1896726349584341 O
atom_frac 0.9608349502959613 0.6868506012831688 0.8103304315539930 O
atom_frac 0.0418325770421788 0.1141506691031609 0.1376459978923705 O
atom_frac 0.9582103246083805 0.8858382879686032 0.8623581468739021 O
atom_frac 0.9133743493121929 0.2354133000732119 0.4027784159561207 O
atom_frac 0.0866185335836676 0.7645884182827912 0.5972089056998371 O
atom_frac 0.9383619911455343 0.0224765480836453 0.3828917003897557 O
atom_frac 0.0616382306651388 0.9775300784585994 0.6171133101957267 O
