#=======================================================
# FHI-aims file: ./geometry.in
# Created using the Atomic Simulation Environment (ASE)
# Mon Feb  7 19:01:15 2022
#=======================================================
lattice_vector 9.9884509700000006 0.0000149600000000 0.0000289700000000 
lattice_vector 0.0000046700000000 10.7463364600000002 -2.1253133100000001 
lattice_vector 0.0000000800000000 -0.3933668800000000 15.4063041100000007 
atom_frac 0.2309430000000000 0.2433340300000000 0.3198171500000000 Cu
    initial_moment         1.000000
atom_frac 0.7309462400000000 0.2566687499999999 0.1801853400000000 Cu
    initial_moment         1.000000
atom_frac 0.7690500200000000 0.7566683199999998 0.6801852300000001 Cu
    initial_moment        -1.000000
atom_frac 0.2690593100000000 0.7433331500000000 0.8198170000000001 Cu
    initial_moment        -1.000000
atom_frac 0.3724586100000000 0.3516979900000000 0.6465562700000000 H
atom_frac 0.8724511300000000 0.1482999400000000 0.8534427999999999 H
atom_frac 0.6275436500000000 0.6482970799999999 0.3534427200000000 H
atom_frac 0.1275414000000000 0.8516996600000000 0.1465541700000000 H
atom_frac 0.6804415200000000 0.3620801600000000 0.4653242000000000 H
atom_frac 0.1804375900000000 0.1379131800000000 0.0346737900000000 H
atom_frac 0.3195612000000000 0.6379160500000000 0.5346775600000001 H
atom_frac 0.8195583800000001 0.8620818200000000 0.9653228400000000 H
atom_frac 0.4052761200000001 0.0317230700000000 0.2576392000000000 H
atom_frac 0.9052795900000000 0.4682803900000000 0.2423631500000000 H
atom_frac 0.5947265100000000 0.9682784399999999 0.7423621700000000 H
atom_frac 0.0947197600000000 0.5317215100000000 0.7576404500000000 H
atom_frac 0.4023258800000001 0.8019932700000000 0.2523290500000000 H
atom_frac 0.9023247700000001 0.6980120399999998 0.2476752800000000 H
atom_frac 0.5976763600000000 0.1980089400000000 0.7476729000000000 H
atom_frac 0.0976737200000000 0.3019901900000000 0.7523270300000000 H
atom_frac 0.0196578200000000 0.8557754600000000 0.3882233200000000 H
atom_frac 0.5196582600000000 0.6442204099999999 0.1117753400000000 H
atom_frac 0.9803410200000001 0.1442210800000000 0.6117720900000001 H
atom_frac 0.4803434600000001 0.3557741400000000 0.8882220200000001 H
atom_frac 0.0445072700000000 0.0861139200000000 0.3916446000000000 H
atom_frac 0.5445102900000000 0.4138858599999999 0.1083548900000000 H
atom_frac 0.9554952200000000 0.9138884600000000 0.6083552900000000 H
atom_frac 0.4554918200000000 0.5861123900000000 0.8916447300000000 H
atom_frac 0.3030330100000000 0.6204261200000000 0.1890025400000000 H
atom_frac 0.8030260200000000 0.8795750500000000 0.3110012200000000 H
atom_frac 0.6969732500000000 0.3795715100000000 0.8109999400000001 H
atom_frac 0.1969686900000000 0.1204235100000000 0.6890008000000000 H
atom_frac 0.3087648600000000 0.3923406699999999 0.1957169700000000 H
atom_frac 0.8087663899999999 0.1076608900000000 0.3042816200000000 H
atom_frac 0.6912282500000000 0.6076573199999999 0.8042819800000000 H
atom_frac 0.1912409600000000 0.8923365699999999 0.6957141400000001 H
atom_frac 0.0982424900000000 0.4585290399999999 0.4315379000000000 H
atom_frac 0.5982471100000000 0.0414693200000000 0.0684589100000000 H
atom_frac 0.9017470600000002 0.5414722900000000 0.5684598000000000 H
atom_frac 0.4017605900000000 0.9585266499999999 0.9315370400000000 H
atom_frac 0.0874822900000000 0.6892358200000001 0.4396977100000000 H
atom_frac 0.5874807500000001 0.8107647499999999 0.0603031000000000 H
atom_frac 0.9125179900000001 0.3107673900000000 0.5603028000000000 H
atom_frac 0.4125208100000000 0.1892337800000000 0.9396964000000000 H
atom_frac 0.1728876500000000 0.2657965200000000 0.5234695000000000 C
atom_frac 0.6728869800000001 0.2342183200000000 0.9765354600000001 C
atom_frac 0.8271158200000001 0.7341952000000000 0.4765282800000000 C
atom_frac 0.3271104200000000 0.7657937300000000 0.0234668800000000 C
atom_frac 0.3167251100000000 0.2999549400000000 0.5081458500000000 C
atom_frac 0.8167228100000001 0.2000460599999999 0.9918531300000000 C
atom_frac 0.6832748100000000 0.7000455700000001 0.4918519200000001 C
atom_frac 0.1832751300000000 0.7999552999999999 0.0081437100000000 C
atom_frac 0.4073583500000000 0.3398910199999999 0.5778372899999999 C
atom_frac 0.9073533200000000 0.1601079000000000 0.9221617500000000 C
atom_frac 0.5926427399999999 0.6601086500000000 0.4221617800000000 C
atom_frac 0.0926418500000000 0.8398934000000000 0.0778348600000000 C
atom_frac 0.5749694200000000 0.3465178800000000 0.4794694900000001 C
atom_frac 0.0749669800000000 0.1534851800000000 0.0205299900000000 C
atom_frac 0.4250329700000000 0.6534807699999999 0.5205316500000000 C
atom_frac 0.9250296500000001 0.8465145200000000 0.9794666400000001 C
atom_frac 0.4866556000000000 0.3079171800000000 0.4088885900000000 C
atom_frac 0.9866572500000002 0.1920931700000000 0.0911117500000000 C
atom_frac 0.5133443400000000 0.6920860200000000 0.5911123700000002 C
atom_frac 0.0133420300000000 0.8079096000000000 0.9088857700000001 C
atom_frac 0.5306477600000000 0.2832963300000000 0.3122627500000000 C
atom_frac 0.0306482900000000 0.2166766100000000 0.1877372100000000 C
atom_frac 0.4693514900000000 0.7166945900000000 0.6877384900000000 C
atom_frac 0.9693499700000001 0.7833161500000000 0.8122610400000001 C
atom_frac 0.3234888300000000 0.9880705200000000 0.2872302800000000 C
atom_frac 0.8234914300000000 0.5119322100000000 0.2127719300000000 C
atom_frac 0.6765135800000001 0.0119312300000000 0.7127710400000000 C
atom_frac 0.1765083100000000 0.4880691000000000 0.7872307600000001 C
atom_frac 0.3202633000000000 0.8608286999999998 0.2843103100000000 C
atom_frac 0.8202640000000001 0.6391743500000000 0.2156927600000000 C
atom_frac 0.6797383200000000 0.1391731900000000 0.7156914500000001 C
atom_frac 0.1797355300000000 0.3608267900000000 0.7843098299999999 C
atom_frac 0.2105953600000000 0.8099187699999999 0.3204617100000000 C
atom_frac 0.7105949900000000 0.6900823699999998 0.1795404900000000 C
atom_frac 0.7894052600000001 0.1900819700000000 0.6795384200000000 C
atom_frac 0.2894048400000000 0.3099166999999999 0.8204605000000001 C
atom_frac 0.1091454000000000 0.8913322699999999 0.3600253600000000 C
atom_frac 0.6091465300000001 0.6086674699999999 0.1399754900000000 C
atom_frac 0.8908538200000000 0.1086675000000000 0.6399726999999999 C
atom_frac 0.3908547500000000 0.3913302900000000 0.8600240300000001 C
atom_frac 0.1198853400000000 0.0177057500000000 0.3607386900000000 C
atom_frac 0.6198873300000001 0.4822944700000000 0.1392629400000000 C
atom_frac 0.8801158400000001 0.9822951400000001 0.6392616800000002 C
atom_frac 0.3801140200000001 0.5177041400000000 0.8607378100000000 C
atom_frac 0.2027844300000000 0.6746695399999999 0.3166893900000000 C
atom_frac 0.7027827600000001 0.8253313900000001 0.1833125400000000 C
atom_frac 0.7972158600000001 0.3253309200000000 0.6833111699999999 C
atom_frac 0.2972173600000000 0.1746670600000000 0.8166880300000000 C
atom_frac 0.2605149500000000 0.5888665900000000 0.2458942100000000 C
atom_frac 0.7605121600000000 0.9111347099999999 0.2541079400000000 C
atom_frac 0.7394856100000001 0.4111327100000001 0.7541071300000001 C
atom_frac 0.2394875500000000 0.0888638000000000 0.7458925300000000 C
atom_frac 0.2613727400000000 0.4630665499999999 0.2478873900000000 C
atom_frac 0.7613746500000000 0.0369339300000000 0.2521116300000000 C
atom_frac 0.7386218900000000 0.5369319100000000 0.7521120700000001 C
atom_frac 0.2386297900000000 0.9630635100000000 0.7478857799999999 C
atom_frac 0.1442025900000000 0.5010786300000000 0.3807478300000001 C
atom_frac 0.6442064800000000 0.9989210800000000 0.1192502100000000 C
atom_frac 0.8557894800000000 0.4989221599999999 0.6192506700000000 C
atom_frac 0.3557998600000000 0.0010759700000000 0.8807467900000000 C
atom_frac 0.1397733300000000 0.6284257100000000 0.3839126400000000 C
atom_frac 0.6397733500000001 0.8715747500000000 0.1160878700000000 C
atom_frac 0.8602242000000000 0.3715754600000000 0.6160874400000002 C
atom_frac 0.3602297900000000 0.1284230600000000 0.8839113300000000 C
atom_frac 0.3584386400000000 0.2883799799999999 0.4244955300000001 N
atom_frac 0.8584409800000000 0.2116306300000000 0.0755045200000000 N
atom_frac 0.6415610600000001 0.7116274799999999 0.5755046900000000 N
atom_frac 0.1415581400000000 0.7883759500000002 0.9244936300000000 N
atom_frac 0.5349627300000001 0.3656090699999999 0.5639606300000000 N
atom_frac 0.0349580300000000 0.1343900700000000 0.9360391400000000 N
atom_frac 0.4650382600000000 0.6343908500000000 0.4360403700000001 N
atom_frac 0.9650375300000001 0.8656113800000000 0.0639580700000000 N
atom_frac 0.2250055900000000 0.0649090900000000 0.3248070800000000 N
atom_frac 0.7250081000000002 0.4350926000000000 0.1751954500000000 N
atom_frac 0.7749964600000001 0.9350928699999996 0.6751948100000000 N
atom_frac 0.2749929600000000 0.5649080999999999 0.8248067299999999 N
atom_frac 0.2066805000000000 0.4205286200000001 0.3150843700000001 N
atom_frac 0.7066875400000001 0.0794708200000000 0.1849124600000000 N
atom_frac 0.7933092500000001 0.5794699799999999 0.6849135800000000 N
atom_frac 0.2933199600000000 0.9205263199999998 0.8150838600000000 N
atom_frac 0.0901040300000000 0.2776646400000000 0.4643274400000000 O
atom_frac 0.5901034200000000 0.2223412200000000 0.0356792000000000 O
atom_frac 0.9098996300000000 0.7223456200000000 0.5356789700000000 O
atom_frac 0.4098928500000000 0.7776593900000000 0.9643237400000000 O
atom_frac 0.1536595200000000 0.2270547600000000 0.5931454500000000 O
atom_frac 0.6536518700000001 0.2729498600000000 0.9068585400000001 O
atom_frac 0.8463484100000001 0.7729392600000000 0.4068540900000000 O
atom_frac 0.3463373600000000 0.7270451900000000 0.0931406300000000 O
atom_frac 0.4459532900000000 0.2409628900000000 0.2544138500000000 O
atom_frac 0.9459562900000001 0.2590412800000000 0.2455875900000000 O
atom_frac 0.5540420400000000 0.7590535899999999 0.7455911600000000 O
atom_frac 0.0540444500000000 0.7409684899999999 0.7544134300000001 O
atom_frac 0.6532825300000000 0.3068366900000000 0.3016378400000000 O
atom_frac 0.1532816600000000 0.1931663700000000 0.1983630400000000 O
atom_frac 0.3467150200000000 0.6931629499999999 0.6983616900000000 O
atom_frac 0.8467172600000000 0.8068327900000001 0.8016347700000001 O
