#=======================================================
# FHI-aims file: ./geometry.in
# Created using the Atomic Simulation Environment (ASE)
# Mon Feb  7 19:01:14 2022
#=======================================================
lattice_vector 7.6750107900000000 -0.0635128900000000 -0.0008796200000000 
lattice_vector -2.4767027499999998 7.3304042000000003 0.0003828800000000 
lattice_vector 0.0009205400000000 -0.0001665000000000 19.2730004199999989 
atom_frac 0.5000097400000000 0.4999983199999999 0.0000017200000000 K
atom_frac 0.5000002799999999 0.9999970999999999 0.5000017099999999 K
atom_frac 1.0000098200000000 0.9999985099999998 1.0000017100000000 Cr
    initial_moment         1.000000
atom_frac 0.0000003700000000 0.4999969399999999 0.5000017600000000 Cr
    initial_moment        -3.000000
atom_frac 0.3779036800000000 0.0173489100000000 0.9133771499999999 H
atom_frac 0.6220763199999999 0.4826538099999999 0.4133499500000000 H
atom_frac 0.6221159800000000 0.9826480600000000 0.0866265100000000 H
atom_frac 0.3779245199999999 0.5173401100000000 0.5866538500000000 H
atom_frac 0.2932904199999999 0.7819903999999999 0.8905459800000001 H
atom_frac 0.7066967900000000 0.7180191599999999 0.3905280400000000 H
atom_frac 0.7067294100000000 0.2180066700000000 0.1094574900000000 H
atom_frac 0.2933038100000000 0.2819746000000000 0.6094754600000000 H
atom_frac 0.9866166399999999 0.0832578300000000 0.8425860600000001 H
atom_frac 0.0133354900000000 0.4167159100000000 0.3425926700000000 H
atom_frac 0.0134034200000000 0.9167387599999999 0.1574170400000000 H
atom_frac 0.9866647699999999 0.5832783299999998 0.6574104600000000 H
atom_frac 0.2038047100000000 0.0678405300000000 0.8142423399999998 H
atom_frac 0.7961510199999999 0.4321437299999999 0.3142243500000000 H
atom_frac 0.7962156499999999 0.9321561699999998 0.1857611500000000 H
atom_frac 0.2038488600000000 0.5678504900000000 0.6857792700000001 H
atom_frac 0.9234128899999998 0.5821227299999998 0.7778684599999999 H
atom_frac 0.0765563900000000 0.9178601299999999 0.2778760400000000 H
atom_frac 0.0766061600000000 0.4178738700000000 0.2221352800000000 H
atom_frac 0.9234448799999999 0.0821345700000000 0.7221279200000000 H
atom_frac 0.0141106399999999 0.8211507699999998 0.7615568700000001 H
atom_frac 0.9858343400000000 0.6788398300000000 0.2615560200000000 H
atom_frac 0.9859100100000000 0.1788457000000000 0.2384467500000000 H
atom_frac 0.0141663600000000 0.3211550100000000 0.7384476800000001 H
atom_frac 0.1576663800000000 0.7024967700000000 0.7975930799999998 H
atom_frac 0.8423022399999999 0.7975093799999998 0.2975813900000000 H
atom_frac 0.8423528400000000 0.2974984800000000 0.2024107500000000 H
atom_frac 0.1576989300000000 0.2024857500000000 0.7024224699999999 H
atom_frac 0.7538323299999999 0.8618955899999999 0.8290321299999999 H
atom_frac 0.2461224100000000 0.6380830000000000 0.3290456099999999 H
atom_frac 0.2461875800000000 0.1381015100000000 0.1709715100000000 H
atom_frac 0.7538783800000000 0.3619117299999999 0.6709576800000000 H
atom_frac 0.6628358000000000 0.6248393500000000 0.8474269599999997 H
atom_frac 0.3371418099999999 0.8751287099999999 0.3474522799999999 H
atom_frac 0.3371840300000000 0.3751575899999999 0.1525764000000000 H
atom_frac 0.6628591300000000 0.1248656500000000 0.6525516099999999 H
atom_frac 0.7124869800000000 0.7889802999999999 0.9163122999999997 H
atom_frac 0.2875013699999999 0.7109762799999999 0.4163321400000000 H
atom_frac 0.2875323900000000 0.2110161200000000 0.0836912400000000 H
atom_frac 0.7124994499999999 0.2890168399999999 0.5836713299999999 H
atom_frac 0.9237129100000000 0.5947023100000000 0.9695073400000001 H
atom_frac 0.0763076600000000 0.9052874199999998 0.4695130000000000 H
atom_frac 0.0763069700000000 0.4052949700000000 0.0304964100000000 H
atom_frac 0.9236927900000000 0.0947058500000000 0.5304909400000000 H
atom_frac 0.8356647300000000 0.4522572999999999 0.8966619999999998 H
atom_frac 0.1643323300000000 0.0477305700000000 0.3966726600000000 H
atom_frac 0.1643547000000000 0.5477396399999999 0.1033418700000000 H
atom_frac 0.8356687999999999 0.9522633399999999 0.6033314900000000 H
atom_frac 0.0769976300000000 0.5400297499999999 0.9096206499999999 H
atom_frac 0.9230051000000000 0.9599624499999999 0.4096157699999999 H
atom_frac 0.9230218599999999 0.4599670000000000 0.0903830600000000 H
atom_frac 0.0769959300000000 0.0400316100000000 0.5903881300000000 H
atom_frac 0.2826766599999999 0.8483746899999998 -0.0009301800000000 C
atom_frac 0.7173386600000000 0.6516207700000000 0.4990525699999999 C
atom_frac 0.7173427800000000 0.1516219800000000 1.0009337000000000 C
atom_frac 0.2826624299999999 0.3483736699999999 0.5009510099999999 C
atom_frac 0.2651316599999999 0.8872826099999999 0.9227026200000000 C
atom_frac 0.7348577399999998 0.6127164899999998 0.4226842000000000 C
atom_frac 0.7348880100000000 0.1127142700000000 0.0773009100000000 C
atom_frac 0.2651430900000000 0.3872775800000000 0.5773194200000000 C
atom_frac 0.1197440300000000 0.0733377000000000 0.8600576800000000 C
atom_frac 0.8802170000000000 0.4266457700000000 0.3600515200000000 C
atom_frac 0.8802758800000001 0.9266590600000001 0.1399456800000000 C
atom_frac 0.1197834700000000 0.5733483399999999 0.6399519200000000 C
atom_frac 0.2147044800000000 0.2446307500000000 0.9016840300000000 C
atom_frac 0.7852606100000000 0.2553569999999999 0.4016720200000000 C
atom_frac 0.7853150899999999 0.7553661399999999 0.0983193300000000 C
atom_frac 0.2147402500000000 0.7446369800000000 0.5983314500000000 C
atom_frac 0.9529157599999999 0.7387466999999999 0.8707670600000000 C
atom_frac 0.0470647400000000 0.7612389599999999 0.3707695000000000 C
atom_frac 0.0471039000000000 0.2612500699999999 0.1292365600000000 C
atom_frac 0.9529361500000000 0.2387551600000000 0.6292342499999999 C
atom_frac 0.0177972899999999 0.7125977299999998 0.7978692400000000 C
atom_frac 0.9821622399999999 0.7873922099999998 0.2978678700000000 C
atom_frac 0.9822223400000000 0.2873985800000000 0.2021344700000000 C
atom_frac 0.0178387700000000 0.2126024700000000 0.7021359500000000 C
atom_frac 0.7605648399999998 0.7555653299999999 0.8659695999999999 C
atom_frac 0.2394092600000000 0.7444070300000000 0.3659869399999999 C
atom_frac 0.2394548500000000 0.2444314800000000 0.1340339400000000 C
atom_frac 0.7605916000000000 0.2555870399999999 0.6340166800000000 C
atom_frac 0.9485461599999998 0.5732439099999999 0.9144930300000000 C
atom_frac 0.0514604399999999 0.9267468299999998 0.4144955300000000 C
atom_frac 0.0514734500000000 0.4267530500000000 0.0855107200000000 C
atom_frac 0.9485404499999999 0.0732470000000000 0.5855084199999999 C
atom_frac 0.0848300799999999 0.9101905499999998 0.9047034700000001 N
atom_frac 0.9151548800000000 0.5898001200000000 0.4046975600000000 N
atom_frac 0.9151896600000000 0.0898063800000000 0.0953000100000000 N
atom_frac 0.0848458700000000 0.4101938500000000 0.5953060200000000 N
atom_frac 0.1777011700000000 0.9002164700000000 0.0407009100000000 O
atom_frac 0.8223326499999998 0.5997838099999999 0.5406920000000000 O
atom_frac 0.8223182900000000 0.0997804300000000 0.9593025600000000 O
atom_frac 0.1776682700000000 0.4002103000000000 0.4593115700000000 O
atom_frac 0.1897230800000000 0.2241650900000000 0.9683220000000000 O
atom_frac 0.8102671999999999 0.2758338299999999 0.4683115599999999 O
atom_frac 0.8102963499999998 0.7758319499999998 0.0316813500000000 O
atom_frac 0.1897338499999999 0.7241600799999999 0.5316919000000000 O
atom_frac 0.3979111699999999 0.7784556999999999 0.0181494400000000 O
atom_frac 0.6020975700000000 0.7215205999999998 0.5181232800000000 O
atom_frac 0.6021079799999999 0.2215406900000000 0.9818541400000000 O
atom_frac 0.3979038600000000 0.2784741999999999 0.4818803300000000 O
atom_frac 0.3061553500000000 0.3890631999999999 0.8736551900000001 O
atom_frac 0.6937677200000000 0.1109294300000000 0.3736392299999999 O
atom_frac 0.6938640800000000 0.6109337100000000 0.1263481500000000 O
atom_frac 0.3062332300000000 0.8890645499999997 0.6263642399999999 O
