#=======================================================
# FHI-aims file: ./geometry.in
# Created using the Atomic Simulation Environment (ASE)
# Mon Feb  7 19:01:14 2022
#=======================================================
lattice_vector 6.7958010099999999 -0.0778503600000000 0.3511011500000000 
lattice_vector 0.1421855800000000 12.4454649699999997 -0.0887467500000000 
lattice_vector -1.0514642300000001 0.1627899200000000 20.5371841300000000 
atom_frac 0.3957633100000000 0.5344744700000000 0.0158447300000000 Cr
atom_frac 0.3957630799999999 0.9654397500000000 0.4842154900000000 Cr
atom_frac 0.6042361000000001 0.4655256000000000 0.9841551000000001 Cr
    initial_moment         4.000000
atom_frac 0.6042365900000000 0.0345605900000000 0.5157843900000000 Cr
    initial_moment         4.000000
atom_frac 0.9720776399999999 0.7104702200000000 0.8893379600000000 H
atom_frac 0.9725067899999998 0.7898226400000000 0.6105586300000000 H
atom_frac 0.0279218400000000 0.2895295800000000 0.1106621600000000 H
atom_frac 0.0274920300000000 0.2101774900000000 0.3894412500000000 H
atom_frac 0.0968489900000000 0.8835300100000000 0.8462396000000001 H
atom_frac 0.0971297600000000 0.6168355400000000 0.6537091800000000 H
atom_frac 0.9031502299999999 0.1164698400000000 0.1537599600000000 H
atom_frac 0.9028689199999999 0.3831646200000000 0.3462907400000000 H
atom_frac 0.5761245799999999 0.0420907600000000 0.9183232099999999 H
atom_frac 0.5762654899999999 0.4580821400000001 0.5818305400000000 H
atom_frac 0.4238758100000000 0.9579094700000002 0.0816767900000000 H
atom_frac 0.4237330900000000 0.5419180300000002 0.4181694200000000 H
atom_frac 0.4490763400000000 0.8684542900000001 0.9575119000000000 H
atom_frac 0.4493473700000000 0.6316293700000000 0.5426058600000000 H
atom_frac 0.5509225400000000 0.1315455400000000 0.0424875100000000 H
atom_frac 0.5506506899999999 0.3683711100000001 0.4573944300000000 H
atom_frac 0.4569893300000000 0.1369869400000000 0.7093203500000000 H
atom_frac 0.4567547299999999 0.3632276900000000 0.7906870499999999 H
atom_frac 0.5430116699999999 0.8630123000000000 0.2906799700000000 H
atom_frac 0.5432444000000000 0.6367724700000000 0.2093126400000000 H
atom_frac 0.7998277599999999 0.9779104300000001 0.7513592900000000 H
atom_frac 0.8000476599999999 0.5225116800000001 0.7487518800000001 H
atom_frac 0.2001718799999999 0.0220898600000000 0.2486404300000000 H
atom_frac 0.1999514400000000 0.4774888400000000 0.2512481200000000 H
atom_frac 0.9509889699999999 0.9625635099999998 0.6420328900000000 H
atom_frac 0.9510795999999999 0.5377148899999999 0.8580756699999998 H
atom_frac 0.0490115700000000 0.0374368300000000 0.3579668600000000 H
atom_frac 0.0489202100000000 0.4622856000000000 0.1419242500000000 H
atom_frac 0.3015007800000000 0.1609892500000000 0.8165569500000001 H
atom_frac 0.3013452300000000 0.3393281500000000 0.6834609700000001 H
atom_frac 0.6984997900000000 0.8390097900000000 0.1834433100000000 H
atom_frac 0.6986530100000000 0.6606718200000000 0.3165388600000000 H
atom_frac 0.6283100200000000 0.6768411400000000 0.9517027500000000 C
atom_frac 0.6285553899999999 0.8232962300000002 0.5483131700000000 C
atom_frac 0.3716895000000000 0.3231589500000000 0.0482971800000000 C
atom_frac 0.3714436000000000 0.1767040400000000 0.4516868200000000 C
atom_frac 0.7016844299999999 0.7787897000000001 0.9251272800000001 C
atom_frac 0.7020065699999999 0.7214050400000001 0.5748892700000000 C
atom_frac 0.2983151900000000 0.2212103900000000 0.0748726600000000 C
atom_frac 0.2979921200000000 0.2785951600000000 0.4251107000000000 C
atom_frac 0.8841142900000000 0.7835274700000001 0.8940300600000000 C
atom_frac 0.8844657800000000 0.7167443200000000 0.6059243800000000 C
atom_frac 0.1158854100000000 0.2164724300000000 0.1059699200000000 C
atom_frac 0.1155329500000000 0.2832558400000000 0.3940755399999999 C
atom_frac 0.9545960999999998 0.8808574700000001 0.8709241300000000 C
atom_frac 0.9548823799999999 0.6194527500000000 0.6290551900000001 C
atom_frac 0.0454035100000000 0.1191423000000000 0.1290756700000000 C
atom_frac 0.0451162300000000 0.3805474300000001 0.3709447800000000 C
atom_frac 0.8459993700000001 0.9754720300000002 0.8794912700000002 C
atom_frac 0.8461949699999999 0.5248037500000000 0.6205694300000000 C
atom_frac 0.1540004600000000 0.0245278200000000 0.1205086000000000 C
atom_frac 0.1538036199999999 0.4751964500000000 0.3794305099999999 C
atom_frac 0.6637923999999998 0.9700035600000001 0.9105812200000001 C
atom_frac 0.6639958700000000 0.5301947400000000 0.5895208000000000 C
atom_frac 0.3362075400000000 0.0299965000000000 0.0894187300000000 C
atom_frac 0.3360026899999999 0.4698054600000001 0.4104791400000000 C
atom_frac 0.5912615700000000 0.8725065900000002 0.9328485800000001 C
atom_frac 0.5915292100000000 0.6276461700000000 0.5672355200000000 C
atom_frac 0.4087380500000000 0.1274935300000000 0.0671513000000000 C
atom_frac 0.4084693200000000 0.3723540500000000 0.4327644700000001 C
atom_frac 0.9389972799999999 0.0817433300000000 0.8581029400000000 C
atom_frac 0.9390199199999999 0.4185596100000000 0.6419940100000000 C
atom_frac 0.0610026500000000 0.9182564200000002 0.1418969500000000 C
atom_frac 0.0609786500000000 0.5814406100000001 0.3580059500000000 C
atom_frac 0.0821029300000000 0.1138323700000000 0.9138207600000001 C
atom_frac 0.0820406300000000 0.3863499900000000 0.5862563100000000 C
atom_frac 0.9178967300000000 0.8861674700000001 0.0861791600000000 C
atom_frac 0.9179577799999998 0.6136500800000000 0.4137436299999999 C
atom_frac 0.7872823999999999 0.1740277900000000 0.8506011800000000 C
atom_frac 0.7871210299999999 0.3262984099999999 0.6495889400000000 C
atom_frac 0.2127176100000000 0.8259721399999999 0.1493987200000000 C
atom_frac 0.2128774500000000 0.6737018500000000 0.3504110200000000 C
atom_frac 0.3146366400000000 0.0326085100000000 0.6068382900000000 C
atom_frac 0.3145141599999999 0.4674836800000000 0.8932159299999999 C
atom_frac 0.6853634999999999 0.9673917000000000 0.3931616800000000 C
atom_frac 0.6854853300000000 0.5325165700000000 0.1067838600000000 C
atom_frac 0.2156645800000000 0.0467990400000000 0.6697553100000000 C
atom_frac 0.2155753200000000 0.4534142600000001 0.8303048600000000 C
atom_frac 0.7843358999999999 0.9532008800000000 0.3302447400000000 C
atom_frac 0.7844241000000000 0.5465860700000001 0.1696949400000000 C
atom_frac 0.3118237700000000 0.1030417500000000 0.7190067600000000 C
atom_frac 0.3116777399999999 0.3972057800000001 0.7810234100000000 C
atom_frac 0.6881769300000000 0.8969577600000002 0.2809934200000000 C
atom_frac 0.6883213800000000 0.6027944400000000 0.2189763600000000 C
atom_frac 0.0406475000000000 0.0699438500000000 0.7921523899999999 C
atom_frac 0.0406774600000000 0.4304170900000000 0.7079158800000001 C
atom_frac 0.9593524699999999 0.9300559199999999 0.2078475700000000 C
atom_frac 0.9593212899999999 0.5695831800000001 0.2920840300000000 C
atom_frac 0.9437158099999999 0.0141547700000000 0.7423277500000001 C
atom_frac 0.9438338599999999 0.4862220100000000 0.7577606600000000 C
atom_frac 0.0562840700000000 0.9858453199999999 0.2576720800000000 C
atom_frac 0.0561652200000000 0.5137784100000000 0.2422392600000000 C
atom_frac 0.0290272700000000 0.0037510600000000 0.6813316100000000 C
atom_frac 0.0290771100000000 0.4965448100000001 0.8187560899999999 C
atom_frac 0.9709729600000000 0.9962490800000000 0.3186682800000000 C
atom_frac 0.9709223199999999 0.5034556000000000 0.1812437800000000 C
atom_frac 0.2239392700000000 0.1154803900000000 0.7793567300000002 C
atom_frac 0.2238511800000000 0.3848359500000000 0.7206798700000000 C
atom_frac 0.7760610799999998 0.8845190400000001 0.2206434000000000 C
atom_frac 0.7761474999999999 0.6151642000000000 0.2793199900000000 C
atom_frac 0.7267684100000000 0.5902975499999999 0.9438146100000001 O
atom_frac 0.7269440599999999 0.9099165700000001 0.5561368900000000 O
atom_frac 0.2732309399999999 0.4097025200000000 0.0561852200000000 O
atom_frac 0.2730552900000000 0.0900836000000000 0.4438630100000001 O
atom_frac 0.2293478500000000 0.9826329999999998 0.5605276500000000 O
atom_frac 0.2292389200000000 0.5173086300000000 0.9395916500000000 O
atom_frac 0.7706521499999999 0.0173672700000000 0.4394723400000001 O
atom_frac 0.7707605599999999 0.4826915700000000 0.0604081600000000 O
atom_frac 0.4667453000000000 0.6756080600000002 0.9833394800000002 O
atom_frac 0.4669294999999999 0.8243925499999999 0.5167457300000000 O
atom_frac 0.5332541299999999 0.3243920100000001 0.0166604000000000 O
atom_frac 0.5330697300000000 0.1756077800000000 0.4832541200000001 O
atom_frac 0.4889160300000000 0.0693500400000000 0.5993740800000000 O
atom_frac 0.4887892700000000 0.4307893000000000 0.9006010200000001 O
atom_frac 0.5110840600000000 0.9306502100000000 0.4006258500000000 O
atom_frac 0.5112101000000000 0.5692107800000000 0.0993988000000000 O
atom_frac 0.9928924299999999 0.1082164400000000 0.9717346700000001 F
atom_frac 0.9928333399999999 0.3918864800000001 0.5283636600000000 F
atom_frac 0.0071075900000000 0.8917822900000000 0.0282653100000000 F
atom_frac 0.0071654600000000 0.6081142200000001 0.4716362500000000 F
atom_frac 0.2368582600000000 0.0463914800000000 0.9154993500000000 F
atom_frac 0.2369482499999999 0.4537565600000000 0.5844920999999998 F
atom_frac 0.7631425399999999 0.9536089600000001 0.0845003200000000 F
atom_frac 0.7630509899999999 0.5462429700000000 0.4155080400000001 F
atom_frac 0.1535519500000000 0.2142948300000000 0.9078937300000001 F
atom_frac 0.1532661200000000 0.2858818900000000 0.5922261700000000 F
atom_frac 0.8464459799999999 0.7857052900000001 0.0921065100000000 F
atom_frac 0.8467309899999999 0.7141178900000000 0.4077736600000000 F
atom_frac 0.7083901700000000 0.2059219500000000 0.9073034900000000 F
atom_frac 0.7081628400000000 0.2943075000000001 0.5929268800000000 F
atom_frac 0.2916118700000000 0.7940788099999999 0.0926965600000000 F
atom_frac 0.2918369800000000 0.7056922400000001 0.4070730000000000 F
atom_frac 0.8682782799999998 0.2607595400000000 0.8229467200000001 F
atom_frac 0.8679354099999999 0.2396048900000000 0.6772826000000000 F
atom_frac 0.1317216000000000 0.7392400100000001 0.1770525600000000 F
atom_frac 0.1320624700000000 0.7603956600000001 0.3227178800000000 F
atom_frac 0.6384132699999999 0.1420830800000000 0.8119179900000000 F
atom_frac 0.6383143499999999 0.3583329700000000 0.6882866900000000 F
atom_frac 0.3615856899999999 0.8579167700000000 0.1880825600000000 F
atom_frac 0.3616832700000000 0.6416676399999999 0.3117127900000000 F
