#=======================================================
# FHI-aims file: geometry_Co2H6C12N4O8.in
# Created using the Atomic Simulation Environment (ASE)
# Tue Dec 21 18:30:52 2021
#=======================================================
lattice_vector -5.6770484669999997 0.2676538430000000 -0.4292397770000000 
lattice_vector -0.0974209490000000 -7.0431407699999999 -4.0273881129999998 
lattice_vector -0.8111277569999999 -7.7807028430000003 5.4824695810000001 
atom_frac 0.5002834712056339 0.1509862351584060 0.6983206523550578 Co
atom_frac 0.4994648865414533 0.8487942317455859 0.3016458133328824 Co
atom_frac 0.9455797697502530 0.8907228536041316 0.7483811850603387 H
atom_frac 0.0557298720859691 0.3619125865715062 0.7485885450587374 H
atom_frac 0.0545884495003151 0.1095653359486519 0.2516555076325843 H
atom_frac 0.9445747632105393 0.6386518735434520 0.2514957911217265 H
atom_frac 0.1178381506577608 0.6641802796282973 0.9998819881412970 H
atom_frac 0.8828716701575344 0.3366017534184209 0.0002005554858258 H
atom_frac 0.5991143990848329 0.9471414526165985 0.9999745329473056 C
atom_frac 0.4005466056456440 0.0527644524619220 0.0000334638098423 C
atom_frac 0.8706153789785845 0.8701164341504323 0.8595522994382777 C
atom_frac 0.1301286364788439 0.2710315381146414 0.8597650223341020 C
atom_frac 0.1294985541989746 0.1301548255370335 0.1404348745338950 C
atom_frac 0.8701094030839653 0.7294203251858206 0.1402441549049342 C
atom_frac 0.9658313469960335 0.7464491823792160 0.9999150410382923 C
atom_frac 0.0345674892979346 0.2540853241511697 0.0001546667171297 C
atom_frac 0.3899613737051196 0.9423368651011752 0.5356332905548626 C
atom_frac 0.6098770717190192 0.5218395568324325 0.5355385712521681 C
atom_frac 0.6096840927935360 0.0571602742305829 0.4644215960316913 C
atom_frac 0.3901319072007469 0.4777648922438401 0.4643262936653939 C
atom_frac 0.6831838612933225 0.9734793067180758 0.8598458425991992 N
atom_frac 0.3173667039713591 0.1671824242797584 0.8599345334856849 N
atom_frac 0.3166148424197459 0.0264952414540573 0.1401394560401954 N
atom_frac 0.6824864676759289 0.8329317611650422 0.1400226306238750 N
atom_frac 0.3121764883053543 0.9383524248590117 0.6602458827042882 O
atom_frac 0.6881018197607530 0.4016674050466874 0.6601078493301671 O
atom_frac 0.6875346542708268 0.0611298104404057 0.3398196134189604 O
atom_frac 0.3120106107658671 0.5978636086527371 0.3397075219759599 O
atom_frac 0.3009577428178432 0.8585593856533009 0.4614644661716054 O
atom_frac 0.6983546303828803 0.6796998468413520 0.4614191892931244 O
atom_frac 0.6987101266903720 0.1409680220677034 0.5385779294772135 O
atom_frac 0.3015061178761086 0.3200032322823175 0.5385466511020952 O
