#=======================================================
# FHI-aims file: geometry_Co2H16C20S4N4.in
# Created using the Atomic Simulation Environment (ASE)
# Tue Dec 21 18:30:52 2021
#=======================================================
lattice_vector 7.2430798459999997 0.0407436470000000 2.1137620400000001 
lattice_vector 0.0611848540000000 7.2416563040000002 2.1137441020000001 
lattice_vector 0.0750119520000000 0.0747197200000000 11.3594531029999999 
atom_frac 0.6139691924469021 0.3858598447869425 0.2500046639929536 Co
atom_frac 0.3858781911151611 0.6139003101664213 0.7500411411070969 Co
atom_frac 0.3198751124797568 0.5170395189131083 0.1348322742484455 H
atom_frac 0.4828888685144648 0.6802693526717292 0.3650776556416344 H
atom_frac 0.6801980587976005 0.4827939180660508 0.8652151012659884 H
atom_frac 0.5172168660290879 0.3196621956064760 0.6348115949032760 H
atom_frac 0.9847988873620750 0.4754347966805809 0.1824191691889965 H
atom_frac 0.5246676384496141 0.0153395904386429 0.3174407659167713 H
atom_frac 0.0151971010954881 0.5246791332663248 0.8175199489797221 H
atom_frac 0.4752849968845610 0.9846514732278986 0.6825187182026654 H
atom_frac 0.9910794947562706 0.1517842638208363 0.5641126060234143 H
atom_frac 0.8483559972974747 0.0089560416753329 0.9358748541714662 H
atom_frac 0.0089309918913543 0.8482731870679597 0.4359390824020438 H
atom_frac 0.1516721660645359 0.9909812654281394 0.0641677307215146 H
atom_frac 0.3283328754105810 0.2033320465891393 0.5002926167058845 H
atom_frac 0.7966927650515389 0.6717485503154276 0.9997053939538670 H
atom_frac 0.6716894650715519 0.7966370220174492 0.4997530645062795 H
atom_frac 0.2033415538994703 0.3282367124532328 0.0003702578959235 H
atom_frac 0.2428158605668713 0.4353333027186037 0.2288905836066634 C
atom_frac 0.5646590653652055 0.7572070531859365 0.2710194876029277 C
atom_frac 0.7570518743517454 0.5646519868545421 0.7711394729447535 C
atom_frac 0.4353000267244554 0.2428963275551793 0.7288914855896494 C
atom_frac 0.0546500390484255 0.4120304404120317 0.2561642609309303 C
atom_frac 0.5879489951756158 0.9454431509507726 0.2437169134235900 C
atom_frac 0.9452996391586127 0.5879646210909185 0.7438108753733772 C
atom_frac 0.4119948707249607 0.0546407800384259 0.7562137170832061 C
atom_frac 0.9556457972005604 0.3062100869660682 0.3780166515023921 C
atom_frac 0.6938404940908001 0.0445023890706366 0.1219142881964359 C
atom_frac 0.0444264521572322 0.6937658687983086 0.6220034956305086 C
atom_frac 0.3062331852134009 0.9555209572125061 0.8780624418818307 C
atom_frac 0.0584453088090271 0.2332548018027650 0.4677161404756802 C
atom_frac 0.7666799916119090 0.9417120477722772 0.0322227352693217 C
atom_frac 0.9416296161216169 0.7667085191094498 0.5323225860129313 C
atom_frac 0.2332582035700455 0.0583230247824531 0.9677620581247055 C
atom_frac 0.2472237117324951 0.2617466968299097 0.4325175095632191 C
atom_frac 0.7381855386255367 0.7528851230998296 0.0674297375582569 C
atom_frac 0.7527834394830111 0.7382266334530880 0.5675249231124369 C
atom_frac 0.2617551970590455 0.2471775656360649 0.9325538459572728 C
atom_frac 0.7211269584445789 0.2638184821525371 0.4184421913160036 S
atom_frac 0.7364322314021123 0.2789881341599596 0.0814896608778355 S
atom_frac 0.2789163977613499 0.7362984035374180 0.5817199682389784 S
atom_frac 0.2636554410198428 0.7210506338448892 0.9183231373916101 S
atom_frac 0.3414002358510758 0.3594598361333538 0.3141810613695526 N
atom_frac 0.6406845217204876 0.6585653393729131 0.1857921114118781 N
atom_frac 0.6584755184646623 0.6405543873278673 0.6858509222171989 N
atom_frac 0.3594232876255248 0.3414811002982530 0.8142030212865308 N
