#=======================================================
# FHI-aims file: ./geometry.in
# Created using the Atomic Simulation Environment (ASE)
# Mon Feb  7 19:01:14 2022
#=======================================================
lattice_vector 8.2828205399999995 0.0445250300000000 -0.1315293700000000 
lattice_vector -0.2722428000000000 10.4212983099999992 -0.1445754300000000 
lattice_vector -0.0020431700000000 0.0437683500000000 10.9005630399999998 
atom_frac -0.0000001000000000 0.5000000200000000 1.0000000300000000 Ti
atom_frac 0.9999999499999999 1.0000000400000000 0.5000000400000000 Ti
atom_frac 0.2010337400000000 0.3952287600000000 0.2859998800000000 H
atom_frac 0.7989660599999999 0.6047712800000000 0.7140001600000000 H
atom_frac 0.2505666500000000 0.4239905600000000 0.5108125600000001 H
atom_frac 0.7494332999999999 0.5760095100000000 0.4891874500000000 H
atom_frac 0.1909878500000000 0.6325417900000000 0.6142490400000000 H
atom_frac 0.8090121999999998 0.3674582900000001 0.3857509800000001 H
atom_frac 0.0268161100000000 0.7822374800000000 0.2686959000000000 H
atom_frac 0.9731837300000000 0.2177625800000000 0.7313041500000000 H
atom_frac 0.2202482800000000 0.5457371100000000 0.7853154400000001 H
atom_frac 0.7797515300000000 0.4542630100000001 0.2146846600000000 H
atom_frac 0.4818883900000000 0.4680992800000001 0.6985152200000000 H
atom_frac 0.5181114199999999 0.5319008100000000 0.3014848500000000 H
atom_frac 0.6374459900000000 0.3056113800000000 0.8171242800000001 H
atom_frac 0.3625537699999999 0.6943887000000000 0.1828756900000000 H
atom_frac 0.5294860900000000 0.2296653000000000 0.0179882500000000 H
atom_frac 0.4705137600000000 0.7703348000000002 0.9820118300000001 H
atom_frac 0.2632559099999999 0.3150816200000001 0.0887414700000000 H
atom_frac 0.7367439599999999 0.6849185100000000 0.9112586300000000 H
atom_frac 0.2653632900000000 0.1905288800000000 0.5887325400000000 H
atom_frac 0.7346366300000000 0.8094712000000002 0.4112675400000000 H
atom_frac 0.5424971300000000 0.2696928000000000 0.5269423600000001 H
atom_frac 0.4575028099999999 0.7303072500000001 0.4730577100000000 H
atom_frac 0.6636494199999999 0.1772328700000000 0.3373250000000000 H
atom_frac 0.3363504600000000 0.8227672000000001 0.6626750500000000 H
atom_frac 0.5014775000000000 0.0159156300000000 0.2127316400000000 H
atom_frac 0.4985223499999999 0.9840844500000002 0.7872684200000001 H
atom_frac 0.2234655200000000 0.9519965400000001 0.2846998700000001 H
atom_frac 0.7765343500000000 0.0480035400000000 0.7153002300000000 H
atom_frac 0.1733017600000000 0.7927909299999998 0.0827408400000000 H
atom_frac 0.8266980600000000 0.2072090600000000 0.9172592000000001 H
atom_frac 0.2639348300000000 0.0221595800000000 0.0540932800000000 H
atom_frac 0.7360650099999999 0.9778404000000003 0.9459068000000002 H
atom_frac 0.2133572200000000 0.1307047100000000 0.8550805999999999 H
atom_frac 0.7866426000000000 0.8692953100000002 0.1449195100000000 H
atom_frac 0.9899717999999998 0.7825570699999999 0.7110589200000000 H
atom_frac 0.0100280400000000 0.2174429800000001 0.2889411100000001 H
atom_frac 0.1138571300000000 0.5878063200000000 0.2623484600000000 C
atom_frac 0.8861426900000000 0.4121937300000000 0.7376515900000000 C
atom_frac 0.1758895800000000 0.4861902100000001 0.3317703200000000 C
atom_frac 0.8241102600000000 0.5138098300000000 0.6682297100000000 C
atom_frac 0.2040112900000000 0.5036820300000000 0.4570533200000000 C
atom_frac 0.7959886300000000 0.4963180300000001 0.5429467000000001 C
atom_frac 0.1718957900000000 0.6191499800000001 0.5155450600000000 C
atom_frac 0.8281041600000000 0.3808500800000000 0.4844549700000000 C
atom_frac 0.1081707500000000 0.7208398100000000 0.4474419900000001 C
atom_frac 0.8918291499999998 0.2791602600000000 0.5525580600000000 C
atom_frac 0.0790024700000000 0.7040050600000001 0.3212108900000001 C
atom_frac 0.9209973699999999 0.2959949900000000 0.6787891600000001 C
atom_frac 0.2933906900000000 0.4745218200000000 0.8321828999999998 C
atom_frac 0.7066091300000000 0.5254782799999999 0.1678171800000000 C
atom_frac 0.4367856800000000 0.4306267100000000 0.7850924500000002 C
atom_frac 0.5632141300000000 0.5693733900000001 0.2149076200000000 C
atom_frac 0.5232773900000000 0.3409359400000000 0.8514889800000000 C
atom_frac 0.4767224199999999 0.6590641300000000 0.1485110800000000 C
atom_frac 0.4629765300000000 0.2985314600000001 0.9626817900000000 C
atom_frac 0.5370233099999999 0.7014686400000000 0.0373182800000000 C
atom_frac 0.3178835199999999 0.3462737700000000 0.0030229000000000 C
atom_frac 0.6821163299999999 0.6537263400000001 0.9969771800000000 C
atom_frac 0.3224728100000000 0.1567002600000000 0.5048296700000000 C
atom_frac 0.6775271000000000 0.8432998200000003 0.4951704100000000 C
atom_frac 0.4747530400000000 0.1991720800000000 0.4705852600000000 C
atom_frac 0.5252468700000000 0.8008279900000002 0.5294148100000000 C
atom_frac 0.5415752700000001 0.1487505300000000 0.3646136800000000 C
atom_frac 0.4584246199999999 0.8512495400000000 0.6353863800000000 C
atom_frac 0.4517938699999999 0.0589103100000000 0.2955573100000001 C
atom_frac 0.5482059999999999 0.9410897600000001 0.7044427500000000 C
atom_frac 0.2994418300000000 0.0223645400000000 0.3350167600000000 C
atom_frac 0.7005580500000000 0.9776355400000000 0.6649833200000000 C
atom_frac 0.0789105700000000 0.7734086600000000 0.8984025899999999 C
atom_frac 0.9210892500000000 0.2265913500000000 0.1015974500000000 C
atom_frac 0.1566282700000000 0.8415795200000002 0.9953708999999999 C
atom_frac 0.8433715600000000 0.1584204800000000 0.0046291500000000 C
atom_frac 0.2055476500000000 0.9684171300000000 0.9781598100000000 C
atom_frac 0.7944521900000000 0.0315828700000000 0.0218402500000000 C
atom_frac 0.1775555900000000 0.0302448600000000 0.8676207200000000 C
atom_frac 0.8224442500000000 0.9697551600000001 0.1323793600000000 C
atom_frac 0.0981020400000000 0.9634662800000000 0.7705574700000000 C
atom_frac 0.9018978200000000 0.0365337500000000 0.2294426000000000 C
atom_frac 0.0500294200000000 0.8351046400000001 0.7867029300000000 C
atom_frac 0.9499704199999999 0.1648953900000000 0.2132971200000000 C
atom_frac 0.2344612500000000 0.4327421900000001 0.9389163200000000 N
atom_frac 0.7655385800000000 0.5672579100000000 0.0610837600000000 N
atom_frac 0.2362377200000000 0.0696561700000000 0.4383344700000000 N
atom_frac 0.7637621700000000 0.9303439199999999 0.5616656200000000 N
atom_frac 0.0919156400000000 0.5780735700000001 0.1419802200000000 O
atom_frac 0.9080841499999999 0.4219264799999999 0.8580198200000001 O
atom_frac 0.0777661100000000 0.8313561500000001 0.5030187800000001 O
atom_frac 0.9222338399999999 0.1686439100000000 0.4969812600000000 O
atom_frac 0.0307105200000000 0.6518323900000000 0.9097535600000001 O
atom_frac 0.9692892599999999 0.3481676400000000 0.0902464700000000 O
atom_frac 0.0659032900000000 0.0237569300000000 0.6663881800000000 O
atom_frac 0.9340965800000000 0.9762431100000001 0.3336118900000000 O
