#=======================================================
# FHI-aims file: ./geometry.in
# Created using the Atomic Simulation Environment (ASE)
# Mon Feb  7 19:01:14 2022
#=======================================================
lattice_vector 8.4900001199999995 -0.4361619100000000 -1.8621390499999999 
lattice_vector -4.0946077200000000 7.4434115399999996 -1.8547828600000000 
lattice_vector 0.4517591600000000 0.7268443800000000 10.5676085600000000 
atom_frac 0.9035284500000000 0.0954770200000000 0.5000009600000002 Cu
atom_frac 0.0964713300000001 0.9045228500000002 0.4999989600000003 Cu
atom_frac 0.8521425399999999 0.3985246400000000 0.4537995400000000 H
atom_frac 0.6015204600000000 0.1482909500000000 0.5461315300000001 H
atom_frac 0.1478572300000001 0.6014752400000002 0.5462003700000002 H
atom_frac 0.3984793300000000 0.8517089200000001 0.4538683800000002 H
atom_frac 0.7720639700000000 0.4959827200000000 0.2621621100000002 H
atom_frac 0.5048481200000000 0.2294321100000000 0.7376805700000001 H
atom_frac 0.2279358200000000 0.5040171600000000 0.7378378000000002 H
atom_frac 0.4951516800000000 0.7705677800000000 0.2623193400000001 H
atom_frac 0.7128131399999996 0.0126572900000000 1.0065489500000002 H
atom_frac 0.9865499200000001 0.2858804599999999 -0.0065875000000000 H
atom_frac 0.2871866600000001 0.9873426000000002 -0.0065490400000000 H
atom_frac 0.0134498800000002 0.7141194300000002 1.0065874100000003 H
atom_frac 0.7951754200000001 0.9357072600000002 0.2130601900000001 H
atom_frac 0.0627377500000000 0.2024969200000000 0.7870019700000004 H
atom_frac 0.2048243800000000 0.0642926300000000 0.7869397299999999 H
atom_frac 0.9372620399999999 0.7975029500000000 0.2129979400000000 H
atom_frac 0.4417962999999999 0.2767253600000000 0.1285637500000000 H
atom_frac 0.7230537600000001 0.5589470600000003 0.8714672300000004 H
atom_frac 0.5582035000000000 0.7232745100000002 0.8714361700000001 H
atom_frac 0.2769460400000000 0.4410528500000000 0.1285327000000000 H
atom_frac 0.8228779400000003 0.3165354800000000 0.3526438800000001 C
atom_frac 0.6833613300000002 0.1772271000000000 0.6472961300000002 C
atom_frac 0.1771218400000000 0.6834643900000000 0.6473560300000001 C
atom_frac 0.3166384600000001 0.8227727700000003 0.3527037900000001 C
atom_frac 0.7774209900000000 0.3709983100000000 0.2438091900000000 C
atom_frac 0.6293490900000001 0.2233284199999999 0.7561024000000002 C
atom_frac 0.2225788100000000 0.6290015700000000 0.7561907200000000 C
atom_frac 0.3706507000000000 0.7766714600000000 0.2438975100000000 C
atom_frac 0.7383545000000001 0.2638414200000000 0.1146237000000000 C
atom_frac 0.7362097699999998 0.2618431400000000 0.8853222600000004 C
atom_frac 0.2616452900000000 0.7361584600000002 0.8853762100000003 C
atom_frac 0.2637900200000000 0.7381567500000000 0.1146776500000000 C
atom_frac 0.7455656100000000 0.1042642400000000 0.1042822700000000 C
atom_frac 0.8951400500000000 0.2535850299999999 0.8956763600000002 C
atom_frac 0.2544341900000001 0.8957356400000002 0.8957176400000001 C
atom_frac 0.1048597400000000 0.7464148500000000 0.1043235500000000 C
atom_frac 0.7929821600000000 0.0615942100000000 0.2187075000000002 C
atom_frac 0.9373878800000000 0.2055916300000000 0.7812737200000002 C
atom_frac 0.2070176399999999 0.9384056700000000 0.7812924200000003 C
atom_frac 0.0626119100000000 0.7944082500000000 0.2187261900000000 C
atom_frac 0.5949304800000000 0.4052883800000000 0.9999871600000000 C
atom_frac 0.4050693000000000 0.5947114800000000 1.0000127500000000 C
atom_frac 0.4674850800000000 0.3740284800000000 0.0709893500000000 C
atom_frac 0.6258283500000000 0.5328976099999999 0.9290036600000003 C
atom_frac 0.5325146900000000 0.6259713800000000 0.9290105600000003 C
atom_frac 0.3741714300000000 0.4671022600000000 0.0709962600000000 C
atom_frac 0.8334148400000001 0.1650808000000000 0.3434413000000002 N
atom_frac 0.8341327100000000 0.1656055600000000 0.6565182500000000 N
atom_frac 0.1665849500000000 0.8349190800000001 0.6565586200000002 N
atom_frac 0.1658670800000001 0.8343943100000001 0.3434816600000002 N
atom_frac 0.6902050900000000 0.3101287500000002 0.9999696200000006 N
atom_frac 0.3097947000000000 0.6898711200000002 0.0000302900000000 N
atom_frac 0.7830975599999999 0.7824526300000000 0.4155529400000001 Cl
atom_frac 0.2169022200000000 0.2175472400000000 0.5844469600000002 Cl
