#=======================================================
# FHI-aims file: ./geometry.in
# Created using the Atomic Simulation Environment (ASE)
# Mon Feb  7 19:01:11 2022
#=======================================================
lattice_vector 4.1091039800000004 1.0198887800000001 -0.0474281500000000 
lattice_vector -1.7863504100000001 6.9993500099999997 -2.7830016799999999 
lattice_vector 0.3593810400000000 -0.7806845300000000 13.4845572800000006 
atom_frac 0.5381967000000000 0.4774376100000000 0.8537132499999999 Cu
    initial_moment         1.000000
atom_frac 0.0384518500000000 0.5232617200000000 0.6464291900000000 Cu
    initial_moment        -1.000000
atom_frac 0.4618033500000000 0.5225623100000000 0.1462864600000000 Cu
    initial_moment        -1.000000
atom_frac 0.9615482700000002 0.4767379800000001 0.3535705100000000 Cu
    initial_moment         1.000000
atom_frac 0.3338634500000000 0.9256168299999999 0.0898462200000000 H
atom_frac 0.8312249600000000 0.0746283000000000 0.4103147400000000 H
atom_frac 0.6661365900000001 0.0743831200000000 0.9101536199999999 H
atom_frac 0.1687747200000000 0.9253712399999999 0.5896849000000000 H
atom_frac -0.0074081400000001 0.8241994299999998 0.2326826600000000 H
atom_frac 0.4905189200000001 0.1752105100000000 0.2673178899999999 H
atom_frac 1.0074085300000000 0.1758001600000000 0.7673170400000001 H
atom_frac 0.5094803000000000 0.8247888900000001 0.7326817200000000 H
atom_frac 0.0333788500000000 0.7219522900000001 0.8674793900000000 C
atom_frac 0.5320682799999999 0.2790278800000001 0.6327514500000000 C
atom_frac 0.9666212400000002 0.2780477000000000 0.1325203800000000 C
atom_frac 0.4679319000000001 0.7209719300000001 0.3672482300000000 C
atom_frac -0.0359479000000000 0.7435592100000000 0.9766873900000002 C
atom_frac 0.4626247800000000 0.2569527100000000 0.5234903300000000 C
atom_frac 1.0359477600000000 0.2564409300000000 0.0233123900000000 C
atom_frac 0.5373751800000000 0.7430469600000001 0.4765093300000000 C
atom_frac 0.1364864000000000 0.8284504299999997 0.0735154900000000 C
atom_frac 0.6344340100000000 0.1717012800000000 0.4265996400000000 C
atom_frac 0.8635136300000000 0.1715495200000000 0.9264842700000000 C
atom_frac 0.3655657400000000 0.8282982900000000 0.5733999700000000 C
atom_frac 0.9544611900000001 0.7856821400000000 0.1466483600000000 C
atom_frac 0.4526974000000001 0.2140901200000000 0.3534071900000000 C
atom_frac 0.0455389800000000 0.2143176500000000 0.8533513700000001 C
atom_frac 0.5473021700000000 0.7859093900000002 0.6465924500000000 C
atom_frac 0.7041657500000001 0.6797010299999999 0.0959413300000000 N
atom_frac 0.2031303200000001 0.3201850600000001 0.4041309800000000 N
atom_frac 0.2958343500000001 0.3202988400000000 0.9040583999999999 N
atom_frac 0.7968693700000001 0.6798145100000001 0.5958687000000000 N
atom_frac 0.7092839600000002 0.6535123700000000 0.9906766200000000 N
atom_frac 0.2084408800000000 0.3468285700000001 0.5094678200000000 N
atom_frac 0.2907159500000000 0.3464876900000000 0.0093231400000000 N
atom_frac 0.7915590200000001 0.6531710900000001 0.4905318700000000 N
atom_frac 0.2677380700000000 0.7936953700000000 0.8458056999999999 O
atom_frac 0.7659611700000000 0.2074841600000000 0.6544693900000000 O
atom_frac 0.7322621800000001 0.2063045700000000 0.1541941300000000 O
atom_frac 0.2340390500000000 0.7925157200000000 0.3455303100000000 O
atom_frac 0.8311358800000003 0.6102283100000000 0.7922186099999999 O
atom_frac 0.3304787200000000 0.3908575100000000 0.7080134600000000 O
atom_frac 0.1688644500000000 0.3897716100000000 0.2077811300000000 O
atom_frac 0.6695214600000000 0.6091423700000000 0.2919862100000000 O
