#=======================================================
# FHI-aims file: ./geometry.in
# Created using the Atomic Simulation Environment (ASE)
# Mon Feb  7 19:01:10 2022
#=======================================================
lattice_vector 8.4638383899999994 0.1799969000000000 -0.7285742900000000 
lattice_vector -0.8112499100000000 8.3081919899999992 -0.7216288400000000 
lattice_vector -0.1367722200000000 -0.1599347200000000 12.5013197799999993 
atom_frac -0.0000068300000000 0.5000084100000000 0.5000192400000001 Fe
    initial_moment         4.000000
atom_frac 0.4999805400000000 1.0000064600000000 0.0000198200000000 Fe
    initial_moment         4.000000
atom_frac 0.8954867700000001 0.2775756500000000 0.8476575600000001 H
atom_frac 0.7219686199999999 0.1134344600000000 0.6545778700000001 H
atom_frac 0.1044977300000000 0.7224533000000002 0.1523829500000000 H
atom_frac 0.2780382000000001 0.8865854100000001 0.3454775200000000 H
atom_frac 0.2724832800000000 0.4597703600000000 0.6820279500000000 H
atom_frac 0.5457592000000001 0.7264614800000000 0.8176348000000000 H
atom_frac 0.7275023100000000 0.5402703600000001 0.3180176600000000 H
atom_frac 0.4542131400000001 0.2735532600000000 0.1824019800000000 H
atom_frac 0.2643058500000001 0.5366425900000000 0.9866566200000000 H
atom_frac 0.4681359200000000 0.7320224500000000 0.5165929000000001 H
atom_frac 0.7357197599999999 0.4633966400000000 0.0133856800000000 H
atom_frac 0.5318594600000000 0.2680214600000000 0.4834515400000000 H
atom_frac 0.2628949400000001 0.0790978400000000 0.8071345400000001 H
atom_frac 0.9236838200000002 0.7449627500000001 0.6914696100000001 H
atom_frac 0.7370459000000001 0.9209219600000002 0.1929154600000001 H
atom_frac 0.0763058600000000 0.2550375400000000 0.3085748800000000 H
atom_frac 0.8055891700000000 0.1835888600000000 0.4298621200000001 C
atom_frac 0.8141113300000000 0.1921215000000000 0.0707231800000000 C
atom_frac 0.1944002700000000 0.8164217800000002 0.5701730600000000 C
atom_frac 0.1858433800000000 0.8078900300000001 0.9293267200000001 C
atom_frac 0.9583867900000002 0.3298367300000000 0.7858033000000001 C
atom_frac 0.6704052700000001 0.0478499500000000 0.7156002000000000 C
atom_frac 0.0415988200000000 0.6701913199999999 0.2142372900000000 C
atom_frac 0.3295889300000000 0.9521681700000001 0.2844496800000000 C
atom_frac 0.1543927700000000 0.4268351100000001 0.7035673500000001 C
atom_frac 0.5765858500000001 0.8468882100000000 0.7965988300000001 C
atom_frac 0.8455927300000000 0.5731997600000001 0.2964758300000000 C
atom_frac 0.4233917700000000 0.1531270900000000 0.2034414600000000 C
atom_frac 0.2917648000000000 0.4131780700000001 0.9655435800000001 C
atom_frac 0.5908781600000000 0.7065888600000001 0.5366093400000002 C
atom_frac 0.7082361000000000 0.5868537300000000 0.0344972600000000 C
atom_frac 0.4091144400000000 0.2934433800000000 0.4634329900000000 C
atom_frac 0.2884159900000000 0.1756912300000000 0.8731315900000001 C
atom_frac 0.8272686200000001 0.7162264800000000 0.6266176900000000 C
atom_frac 0.7115438400000001 0.8243322900000000 0.1269140300000000 C
atom_frac 0.1727209600000000 0.2837843000000000 0.3734262300000001 C
atom_frac 0.7133111800000000 0.0048837500000000 0.4027480600000001 S
atom_frac 0.9931469700000000 0.2793921700000000 0.0964894800000000 S
atom_frac 0.2866959600000001 0.9951180400000000 0.5972907000000001 S
atom_frac 0.0068025200000000 0.7206322500000000 0.9035650800000001 S
atom_frac 0.8689026000000001 0.3146362400000001 0.4514153600000000 N
atom_frac 0.6828591899999999 0.1325778700000000 0.0500728400000000 N
atom_frac 0.1310813400000000 0.6853763200000000 0.5486222900000000 N
atom_frac 0.3170965100000000 0.8674359500000001 0.9499653600000000 N
atom_frac 0.0204560700000000 0.4307553900000001 0.6420436000000002 N
atom_frac 0.5700832900000000 0.9819484700000001 0.8584667000000001 N
atom_frac 0.9795308900000002 0.5692651200000000 0.3579944800000000 N
atom_frac 0.4298841500000000 0.0180656900000000 0.1415726300000000 N
atom_frac 0.8968730000000000 0.3710773300000000 0.6934791100000001 N
atom_frac 0.6278347300000000 0.1086455800000000 0.8078361600000001 N
atom_frac 0.1031138100000000 0.6289380200000001 0.3065575900000000 N
atom_frac 0.3721422500000001 0.8913693700000000 0.1922093100000000 N
atom_frac 0.1193345200000000 0.3612656200000000 0.7943418100000000 N
atom_frac 0.6419492700000000 0.8842665800000001 0.7064665000000001 N
atom_frac 0.8806493500000000 0.6387765800000000 0.2057038900000000 N
atom_frac 0.3580479500000001 0.1157508000000000 0.2935813300000000 N
atom_frac 0.2274144300000000 0.3217535100000000 0.8730977900000000 N
atom_frac 0.6821444100000000 0.7755173900000001 0.6275653700000001 N
atom_frac 0.7725658000000000 0.6782801800000001 0.1269471400000000 N
atom_frac 0.3178491500000000 0.2245016700000000 0.3724801900000001 N
atom_frac 0.3861896000000001 0.1798537800000000 0.9616641900000001 N
atom_frac 0.8227119900000001 0.6150599000000000 0.5389494500000001 N
atom_frac 0.6137772800000000 0.8201617800000001 0.0383770600000000 N
atom_frac 0.1772742600000000 0.3849584600000001 0.4610905200000001 N
atom_frac 0.3899621200000000 0.3286375700000000 1.0190609500000003 N
atom_frac 0.6746339900000000 0.6073386200000002 0.4830332500000000 N
atom_frac 0.6100294000000002 0.6713827100000002 -0.0190224400000000 N
atom_frac 0.3253540800000000 0.3926921600000000 0.5170061600000000 N
