#=======================================================
# FHI-aims file: ./geometry.in
# Created using the Atomic Simulation Environment (ASE)
# Mon Feb  7 19:01:15 2022
#=======================================================
lattice_vector 7.4489971700000002 0.0000012400000000 -0.0000252900000000 
lattice_vector -0.0000014200000000 8.6165913599999993 -0.0000063000000000 
lattice_vector 0.0000330500000000 0.0000063500000000 10.3349804600000006 
atom_frac 0.0000001800000000 0.5694179500000001 0.2499999500000000 Ni
    initial_moment         2.000000
atom_frac 0.5000001800000000 0.0694179500000000 0.2499999400000000 Ni
    initial_moment        -2.000000
atom_frac 1.0000001800000000 0.4305817900000000 0.7499999100000000 Ni
    initial_moment         2.000000
atom_frac 0.5000001700000000 0.9305818000000000 0.7499999000000001 Ni
    initial_moment        -2.000000
atom_frac 0.1604279700000000 0.2520690100000000 0.1599679100000000 H
atom_frac 0.6604279100000001 0.7520689400000000 0.3400319100000000 H
atom_frac 0.1604279400000000 0.7479307200000002 0.6599678899999999 H
atom_frac 0.3395724200000000 0.7520689500000000 0.1599679600000000 H
atom_frac 0.8395724000000000 0.7479307900000000 0.8400319300000000 H
atom_frac 0.3395723900000001 0.2479307900000001 0.6599679300000000 H
atom_frac 0.8395724300000000 0.2520689800000000 0.3400319700000000 H
atom_frac 0.6604279100000001 0.2479308300000000 0.8400318799999998 H
atom_frac 0.2481786900000000 0.5289248299999999 0.4907168400000000 H
atom_frac 0.7481786000000000 0.0289248100000000 0.0092830800000000 H
atom_frac 0.2481787100000000 0.4710749699999998 0.9907167999999998 H
atom_frac 0.2518217200000000 0.0289249200000000 0.4907167899999999 H
atom_frac 0.7518217300000000 0.4710749299999999 0.5092830200000000 H
atom_frac 0.2518217000000000 0.9710748800000000 0.9907167399999999 H
atom_frac 0.7518217200000000 0.5289247500000001 0.0092830600000000 H
atom_frac 0.7481785900000001 0.9710748700000000 0.5092830500000000 H
atom_frac 0.4959461500000000 0.2888082300000000 0.4861284000000000 H
atom_frac 0.9959460900000000 0.7888082300000001 0.0138715300000000 H
atom_frac 0.4959461600000000 0.7111915799999999 0.9861283600000000 H
atom_frac 0.0040542400000000 0.7888083299999999 0.4861283600000000 H
atom_frac 0.5040542400000001 0.7111915100000000 0.5138714400000000 H
atom_frac 0.0040542300000000 0.2111914700000000 0.9861283299999999 H
atom_frac 0.5040542500000000 0.2888081500000000 0.0138714700000000 H
atom_frac 0.9959460800000001 0.2111914400000000 0.5138714900000000 H
atom_frac 0.2160526900000000 0.2941923400000000 0.2504818400000000 C
atom_frac 0.7160526300000001 0.7941923000000001 0.2495180100000000 C
atom_frac 0.2160526800000000 0.7058074000000000 0.7504818100000000 C
atom_frac 0.2839477100000000 0.7941923300000001 0.2504818700000000 C
atom_frac 0.7839477000000001 0.7058074299999999 0.7495179999999999 C
atom_frac 0.2839476900000000 0.2058074200000000 0.7504818400000000 C
atom_frac 0.7839477100000000 0.2941923100000000 0.2495180400000000 C
atom_frac 0.7160526200000000 0.2058074500000000 0.7495179800000000 C
atom_frac 0.2644227000000001 0.4351967800000000 0.4212795799999999 C
atom_frac 0.7644226200000001 0.9351967600000001 0.0787203200000000 C
atom_frac 0.2644227100000000 0.5648029999999999 0.9212795400000001 C
atom_frac 0.2355777000000000 0.9351968399999998 0.4212795499999999 C
atom_frac 0.7355777000000000 0.5648029799999998 0.5787202700000000 C
atom_frac 0.2355776800000000 0.0648029400000000 0.9212795099999999 C
atom_frac 0.7355777000000000 0.4351967200000000 0.0787203100000000 C
atom_frac 0.7644226200000001 0.0648029400000000 0.5787202900000000 C
atom_frac 0.3864202900000000 0.3152726299999999 0.4199392200000000 C
atom_frac 0.8864202100000002 0.8152726100000000 0.0800606800000000 C
atom_frac 0.3864202900000000 0.6847271500000000 0.9199391800000001 C
atom_frac 0.1135801200000000 0.8152726900000000 0.4199392000000000 C
atom_frac 0.6135801100000001 0.6847271300000000 0.5800606200000000 C
atom_frac 0.1135801000000000 0.1847271000000000 0.9199391700000000 C
atom_frac 0.6135801200000000 0.3152725699999999 0.0800606600000000 C
atom_frac 0.8864202100000002 0.1847270800000000 0.5800606499999998 C
atom_frac 0.1581619000000000 0.4218534500000000 0.3132868200000000 N
atom_frac 0.6581618300000001 0.9218534100000000 0.1867130600000000 N
atom_frac 0.1581619000000000 0.5781463099999999 0.8132867800000000 N
atom_frac 0.3418384900000000 0.9218534600000000 0.3132868100000000 N
atom_frac 0.8418384900000001 0.5781463300000000 0.6867130500000000 N
atom_frac 0.3418384700000000 0.0781463000000000 0.8132867800000000 N
atom_frac 0.8418384900000001 0.4218534100000000 0.1867130800000000 N
atom_frac 0.6581618200000000 0.0781463200000000 0.6867130299999999 N
atom_frac 0.3541253800000000 0.2276163000000000 0.3118575200000000 N
atom_frac 0.8541253200000000 0.7276162600000000 0.1881423500000000 N
atom_frac 0.3541253800000000 0.7723834599999999 0.8118574900000000 N
atom_frac 0.1458750200000000 0.7276163000000000 0.3118575399999999 N
atom_frac 0.6458750000000001 0.7723834700000001 0.6881423200000000 N
atom_frac 0.1458750000000000 0.2723834600000000 0.8118575100000001 N
atom_frac 0.6458750200000000 0.2276162500000000 0.1881423500000000 N
atom_frac 0.8541253100000000 0.2723834700000001 0.6881423100000000 N
